
     Program PWSCF v.7.5 starts on 30Aug2026 at  8:14:25 

     This program is part of the open-source Quantum ESPRESSO suite
     for quantum simulation of materials; please cite
         "P. Giannozzi et al., J. Phys.:Condens. Matter 21 395502 (2009);
         "P. Giannozzi et al., J. Phys.:Condens. Matter 29 465901 (2017);
         "P. Giannozzi et al., J. Chem. Phys. 152 154105 (2020);
          URL http://www.quantum-espresso.org", 
     in publications or presentations arising from this work. More details at
     http://www.quantum-espresso.org/quote

     Parallel version (MPI), running on     4 processors

     MPI processes distributed on     1 nodes
     6943 MiB available memory on the printing compute node when the environment starts

     Waiting for input...
     Reading input from standard input

     Current dimensions of program PWSCF are:
     Max number of different atomic species (ntypx) = 10
     Max number of k-points (npk) =  40000
     Max angular momentum in pseudopotentials (lmaxx) =  4
     file B.pz-n-kjpaw_psl.0.1.UPF: wavefunction(s)  2P renormalized

     R & G space division:  proc/nbgrp/npool/nimage =       4
     Subspace diagonalization in iterative solution of the eigenvalue problem:
     a serial algorithm will be used


     Parallelization info
     --------------------
     sticks:   dense  smooth     PW     G-vecs:    dense   smooth      PW
     Min         127     127     37                 5025     5025     831
     Max         128     128     38                 5027     5027     835
     Sum         509     509    149                20103    20103    3333

     Using Slab Decomposition



     bravais-lattice index     =            6
     lattice parameter (alat)  =       4.9700  a.u.
     unit-cell volume          =     284.7331 (a.u.)^3
     number of atoms/cell      =            6
     number of atomic types    =            2
     number of electrons       =        24.00
     number of Kohn-Sham states=           16
     kinetic-energy cutoff     =      65.0000  Ry
     charge density cutoff     =     260.0000  Ry
     scf convergence threshold =      1.0E-09
     mixing beta               =       0.7000
     number of iterations used =            8  plain     mixing
     energy convergence thresh.=      1.0E-04
     force convergence thresh. =      1.0E-03
     press convergence thresh. =      5.0E-01
     Exchange-correlation= LDA
                           (   1   1   0   0   0   0   0)
     nstep                     =           50


     celldm(1)=   4.969980  celldm(2)=   0.000000  celldm(3)=   2.319392
     celldm(4)=   0.000000  celldm(5)=   0.000000  celldm(6)=   0.000000

     crystal axes: (cart. coord. in units of alat)
               a(1) = (   1.000000   0.000000   0.000000 )  
               a(2) = (   0.000000   1.000000   0.000000 )  
               a(3) = (   0.000000   0.000000   2.319392 )  

     reciprocal axes: (cart. coord. in units 2 pi/alat)
               b(1) = (  1.000000  0.000000  0.000000 )  
               b(2) = (  0.000000  1.000000  0.000000 )  
               b(3) = (  0.000000  0.000000  0.431148 )  


     PseudoPot. # 1 for B  read from file:
     /home/amin/Desktop/QE/B.pz-n-kjpaw_psl.0.1.UPF
     MD5 check sum: c354f25e7b21c7d4006671951663ef11
     Pseudo is Projector augmented-wave + core cor, Zval =  3.0
     Generated using "atomic" code by A. Dal Corso  v.5.0.2 svn rev. 9415
     Shape of augmentation charge: BESSEL
     Using radial grid of 1059 points,  4 beta functions with: 
                l(1) =   0
                l(2) =   0
                l(3) =   1
                l(4) =   1
     Q(r) pseudized with 0 coefficients 


     PseudoPot. # 2 for N  read from file:
     /home/amin/Desktop/QE/N.pz-n-rrkjus_psl.0.1.UPF
     MD5 check sum: 5663b752f1eef59ba9d503062cb6a42c
     Pseudo is Ultrasoft + core correction, Zval =  5.0
     Generated using "atomic" code by A. Dal Corso  v.5.0.2 svn rev. 9415
     Using radial grid of 1085 points,  4 beta functions with: 
                l(1) =   0
                l(2) =   0
                l(3) =   1
                l(4) =   1
     Q(r) pseudized with 0 coefficients 


     atomic species   valence    mass     pseudopotential
     B                 3.00    10.81000     B ( 1.00)
     N                 5.00    14.00000     N ( 1.00)

      4 Sym. Ops. (no inversion) found


                                    s                        frac. trans.

      isym =  1     identity                                     

 cryst.   s( 1) = (     1          0          0      )
                  (     0          1          0      )
                  (     0          0          1      )

 cart.    s( 1) = (  1.0000000  0.0000000  0.0000000 )
                  (  0.0000000  1.0000000  0.0000000 )
                  (  0.0000000  0.0000000  1.0000000 )


      isym =  2     180 deg rotation - cart. axis [0,0,1]        

 cryst.   s( 2) = (    -1          0          0      )
                  (     0         -1          0      )
                  (     0          0          1      )

 cart.    s( 2) = ( -1.0000000  0.0000000  0.0000000 )
                  (  0.0000000 -1.0000000  0.0000000 )
                  (  0.0000000  0.0000000  1.0000000 )


      isym =  3     inv. 180 deg rotation - cart. axis [0,1,0]   

 cryst.   s( 3) = (     1          0          0      )
                  (     0         -1          0      )
                  (     0          0          1      )

 cart.    s( 3) = (  1.0000000  0.0000000  0.0000000 )
                  (  0.0000000 -1.0000000  0.0000000 )
                  (  0.0000000  0.0000000  1.0000000 )


      isym =  4     inv. 180 deg rotation - cart. axis [1,0,0]   

 cryst.   s( 4) = (    -1          0          0      )
                  (     0          1          0      )
                  (     0          0          1      )

 cart.    s( 4) = ( -1.0000000  0.0000000  0.0000000 )
                  (  0.0000000  1.0000000  0.0000000 )
                  (  0.0000000  0.0000000  1.0000000 )


     point group C_2v (mm2) 
     there are  4 classes
     the character table:

       E     C2    s_v   s_v' 
A_1    1.00  1.00  1.00  1.00
A_2    1.00  1.00 -1.00 -1.00
B_1    1.00 -1.00  1.00 -1.00
B_2    1.00 -1.00 -1.00  1.00

     the symmetry operations in each class and the name of the first element:

     E        1
          identity                                               
     C2       2
          180 deg rotation - cart. axis [0,0,1]                  
     s_v      4
          inv. 180 deg rotation - cart. axis [1,0,0]             
     s_v'     3
          inv. 180 deg rotation - cart. axis [0,1,0]             

   Cartesian axes

     site n.     atom                  positions (alat units)
         1        N      tau(   1) = (   0.5000000   0.5000000   0.0000000  )
         2        B      tau(   2) = (   0.5000000   0.0000000   0.3261217  )
         3        N      tau(   3) = (   0.5000000   0.0000000   0.8394297  )
         4        N      tau(   4) = (   0.0000000   0.5000000   1.4858175  )
         5        B      tau(   5) = (   0.5000000   0.5000000   1.1596958  )
         6        B      tau(   6) = (   0.0000000   0.5000000   1.9991255  )

   Crystallographic axes

     site n.     atom                  positions (cryst. coord.)
         1        N      tau(   1) = (  0.5000000  0.5000000  0.0000000  )
         2        B      tau(   2) = (  0.5000000  0.0000000  0.1406066  )
         3        N      tau(   3) = (  0.5000000  0.0000000  0.3619180  )
         4        N      tau(   4) = (  0.0000000  0.5000000  0.6406066  )
         5        B      tau(   5) = (  0.5000000  0.5000000  0.5000000  )
         6        B      tau(   6) = (  0.0000000  0.5000000  0.8619180  )

     number of k points=    64  Gaussian smearing, width (Ry)=  0.0200
                       cart. coord. in units 2pi/alat
        k(    1) = (   0.0625000   0.0625000   0.0269467), wk =   0.0312500
        k(    2) = (   0.0625000   0.0625000   0.0808402), wk =   0.0312500
        k(    3) = (   0.0625000   0.0625000   0.1347336), wk =   0.0312500
        k(    4) = (   0.0625000   0.0625000   0.1886270), wk =   0.0312500
        k(    5) = (   0.0625000   0.1875000   0.0269467), wk =   0.0312500
        k(    6) = (   0.0625000   0.1875000   0.0808402), wk =   0.0312500
        k(    7) = (   0.0625000   0.1875000   0.1347336), wk =   0.0312500
        k(    8) = (   0.0625000   0.1875000   0.1886270), wk =   0.0312500
        k(    9) = (   0.0625000   0.3125000   0.0269467), wk =   0.0312500
        k(   10) = (   0.0625000   0.3125000   0.0808402), wk =   0.0312500
        k(   11) = (   0.0625000   0.3125000   0.1347336), wk =   0.0312500
        k(   12) = (   0.0625000   0.3125000   0.1886270), wk =   0.0312500
        k(   13) = (   0.0625000   0.4375000   0.0269467), wk =   0.0312500
        k(   14) = (   0.0625000   0.4375000   0.0808402), wk =   0.0312500
        k(   15) = (   0.0625000   0.4375000   0.1347336), wk =   0.0312500
        k(   16) = (   0.0625000   0.4375000   0.1886270), wk =   0.0312500
        k(   17) = (   0.1875000   0.1875000   0.0269467), wk =   0.0312500
        k(   18) = (   0.1875000   0.1875000   0.0808402), wk =   0.0312500
        k(   19) = (   0.1875000   0.1875000   0.1347336), wk =   0.0312500
        k(   20) = (   0.1875000   0.1875000   0.1886270), wk =   0.0312500
        k(   21) = (   0.1875000   0.3125000   0.0269467), wk =   0.0312500
        k(   22) = (   0.1875000   0.3125000   0.0808402), wk =   0.0312500
        k(   23) = (   0.1875000   0.3125000   0.1347336), wk =   0.0312500
        k(   24) = (   0.1875000   0.3125000   0.1886270), wk =   0.0312500
        k(   25) = (   0.1875000   0.4375000   0.0269467), wk =   0.0312500
        k(   26) = (   0.1875000   0.4375000   0.0808402), wk =   0.0312500
        k(   27) = (   0.1875000   0.4375000   0.1347336), wk =   0.0312500
        k(   28) = (   0.1875000   0.4375000   0.1886270), wk =   0.0312500
        k(   29) = (   0.3125000   0.3125000   0.0269467), wk =   0.0312500
        k(   30) = (   0.3125000   0.3125000   0.0808402), wk =   0.0312500
        k(   31) = (   0.3125000   0.3125000   0.1347336), wk =   0.0312500
        k(   32) = (   0.3125000   0.3125000   0.1886270), wk =   0.0312500
        k(   33) = (   0.3125000   0.4375000   0.0269467), wk =   0.0312500
        k(   34) = (   0.3125000   0.4375000   0.0808402), wk =   0.0312500
        k(   35) = (   0.3125000   0.4375000   0.1347336), wk =   0.0312500
        k(   36) = (   0.3125000   0.4375000   0.1886270), wk =   0.0312500
        k(   37) = (   0.4375000   0.4375000   0.0269467), wk =   0.0312500
        k(   38) = (   0.4375000   0.4375000   0.0808402), wk =   0.0312500
        k(   39) = (   0.4375000   0.4375000   0.1347336), wk =   0.0312500
        k(   40) = (   0.4375000   0.4375000   0.1886270), wk =   0.0312500
        k(   41) = (   0.1875000   0.0625000  -0.0269467), wk =   0.0312500
        k(   42) = (   0.1875000   0.0625000  -0.0808402), wk =   0.0312500
        k(   43) = (   0.1875000   0.0625000  -0.1347336), wk =   0.0312500
        k(   44) = (   0.1875000   0.0625000  -0.1886270), wk =   0.0312500
        k(   45) = (   0.3125000   0.0625000  -0.0269467), wk =   0.0312500
        k(   46) = (   0.3125000   0.0625000  -0.0808402), wk =   0.0312500
        k(   47) = (   0.3125000   0.0625000  -0.1347336), wk =   0.0312500
        k(   48) = (   0.3125000   0.0625000  -0.1886270), wk =   0.0312500
        k(   49) = (   0.4375000   0.0625000  -0.0269467), wk =   0.0312500
        k(   50) = (   0.4375000   0.0625000  -0.0808402), wk =   0.0312500
        k(   51) = (   0.4375000   0.0625000  -0.1347336), wk =   0.0312500
        k(   52) = (   0.4375000   0.0625000  -0.1886270), wk =   0.0312500
        k(   53) = (   0.3125000   0.1875000  -0.0269467), wk =   0.0312500
        k(   54) = (   0.3125000   0.1875000  -0.0808402), wk =   0.0312500
        k(   55) = (   0.3125000   0.1875000  -0.1347336), wk =   0.0312500
        k(   56) = (   0.3125000   0.1875000  -0.1886270), wk =   0.0312500
        k(   57) = (   0.4375000   0.1875000  -0.0269467), wk =   0.0312500
        k(   58) = (   0.4375000   0.1875000  -0.0808402), wk =   0.0312500
        k(   59) = (   0.4375000   0.1875000  -0.1347336), wk =   0.0312500
        k(   60) = (   0.4375000   0.1875000  -0.1886270), wk =   0.0312500
        k(   61) = (   0.4375000   0.3125000  -0.0269467), wk =   0.0312500
        k(   62) = (   0.4375000   0.3125000  -0.0808402), wk =   0.0312500
        k(   63) = (   0.4375000   0.3125000  -0.1347336), wk =   0.0312500
        k(   64) = (   0.4375000   0.3125000  -0.1886270), wk =   0.0312500

                       cryst. coord.
        k(    1) = (   0.0625000   0.0625000   0.0625000), wk =   0.0312500
        k(    2) = (   0.0625000   0.0625000   0.1875000), wk =   0.0312500
        k(    3) = (   0.0625000   0.0625000   0.3125000), wk =   0.0312500
        k(    4) = (   0.0625000   0.0625000   0.4375000), wk =   0.0312500
        k(    5) = (   0.0625000   0.1875000   0.0625000), wk =   0.0312500
        k(    6) = (   0.0625000   0.1875000   0.1875000), wk =   0.0312500
        k(    7) = (   0.0625000   0.1875000   0.3125000), wk =   0.0312500
        k(    8) = (   0.0625000   0.1875000   0.4375000), wk =   0.0312500
        k(    9) = (   0.0625000   0.3125000   0.0625000), wk =   0.0312500
        k(   10) = (   0.0625000   0.3125000   0.1875000), wk =   0.0312500
        k(   11) = (   0.0625000   0.3125000   0.3125000), wk =   0.0312500
        k(   12) = (   0.0625000   0.3125000   0.4375000), wk =   0.0312500
        k(   13) = (   0.0625000   0.4375000   0.0625000), wk =   0.0312500
        k(   14) = (   0.0625000   0.4375000   0.1875000), wk =   0.0312500
        k(   15) = (   0.0625000   0.4375000   0.3125000), wk =   0.0312500
        k(   16) = (   0.0625000   0.4375000   0.4375000), wk =   0.0312500
        k(   17) = (   0.1875000   0.1875000   0.0625000), wk =   0.0312500
        k(   18) = (   0.1875000   0.1875000   0.1875000), wk =   0.0312500
        k(   19) = (   0.1875000   0.1875000   0.3125000), wk =   0.0312500
        k(   20) = (   0.1875000   0.1875000   0.4375000), wk =   0.0312500
        k(   21) = (   0.1875000   0.3125000   0.0625000), wk =   0.0312500
        k(   22) = (   0.1875000   0.3125000   0.1875000), wk =   0.0312500
        k(   23) = (   0.1875000   0.3125000   0.3125000), wk =   0.0312500
        k(   24) = (   0.1875000   0.3125000   0.4375000), wk =   0.0312500
        k(   25) = (   0.1875000   0.4375000   0.0625000), wk =   0.0312500
        k(   26) = (   0.1875000   0.4375000   0.1875000), wk =   0.0312500
        k(   27) = (   0.1875000   0.4375000   0.3125000), wk =   0.0312500
        k(   28) = (   0.1875000   0.4375000   0.4375000), wk =   0.0312500
        k(   29) = (   0.3125000   0.3125000   0.0625000), wk =   0.0312500
        k(   30) = (   0.3125000   0.3125000   0.1875000), wk =   0.0312500
        k(   31) = (   0.3125000   0.3125000   0.3125000), wk =   0.0312500
        k(   32) = (   0.3125000   0.3125000   0.4375000), wk =   0.0312500
        k(   33) = (   0.3125000   0.4375000   0.0625000), wk =   0.0312500
        k(   34) = (   0.3125000   0.4375000   0.1875000), wk =   0.0312500
        k(   35) = (   0.3125000   0.4375000   0.3125000), wk =   0.0312500
        k(   36) = (   0.3125000   0.4375000   0.4375000), wk =   0.0312500
        k(   37) = (   0.4375000   0.4375000   0.0625000), wk =   0.0312500
        k(   38) = (   0.4375000   0.4375000   0.1875000), wk =   0.0312500
        k(   39) = (   0.4375000   0.4375000   0.3125000), wk =   0.0312500
        k(   40) = (   0.4375000   0.4375000   0.4375000), wk =   0.0312500
        k(   41) = (   0.1875000   0.0625000  -0.0625000), wk =   0.0312500
        k(   42) = (   0.1875000   0.0625000  -0.1875000), wk =   0.0312500
        k(   43) = (   0.1875000   0.0625000  -0.3125000), wk =   0.0312500
        k(   44) = (   0.1875000   0.0625000  -0.4375000), wk =   0.0312500
        k(   45) = (   0.3125000   0.0625000  -0.0625000), wk =   0.0312500
        k(   46) = (   0.3125000   0.0625000  -0.1875000), wk =   0.0312500
        k(   47) = (   0.3125000   0.0625000  -0.3125000), wk =   0.0312500
        k(   48) = (   0.3125000   0.0625000  -0.4375000), wk =   0.0312500
        k(   49) = (   0.4375000   0.0625000  -0.0625000), wk =   0.0312500
        k(   50) = (   0.4375000   0.0625000  -0.1875000), wk =   0.0312500
        k(   51) = (   0.4375000   0.0625000  -0.3125000), wk =   0.0312500
        k(   52) = (   0.4375000   0.0625000  -0.4375000), wk =   0.0312500
        k(   53) = (   0.3125000   0.1875000  -0.0625000), wk =   0.0312500
        k(   54) = (   0.3125000   0.1875000  -0.1875000), wk =   0.0312500
        k(   55) = (   0.3125000   0.1875000  -0.3125000), wk =   0.0312500
        k(   56) = (   0.3125000   0.1875000  -0.4375000), wk =   0.0312500
        k(   57) = (   0.4375000   0.1875000  -0.0625000), wk =   0.0312500
        k(   58) = (   0.4375000   0.1875000  -0.1875000), wk =   0.0312500
        k(   59) = (   0.4375000   0.1875000  -0.3125000), wk =   0.0312500
        k(   60) = (   0.4375000   0.1875000  -0.4375000), wk =   0.0312500
        k(   61) = (   0.4375000   0.3125000  -0.0625000), wk =   0.0312500
        k(   62) = (   0.4375000   0.3125000  -0.1875000), wk =   0.0312500
        k(   63) = (   0.4375000   0.3125000  -0.3125000), wk =   0.0312500
        k(   64) = (   0.4375000   0.3125000  -0.4375000), wk =   0.0312500

     Dense  grid:    20103 G-vectors     FFT dimensions: (  25,  25,  60)

     Dynamical RAM for                 wfc:       0.15 MB

     Dynamical RAM for     wfc (w. buffer):       0.15 MB

     Dynamical RAM for           str. fact:       0.15 MB

     Dynamical RAM for           local pot:       0.00 MB

     Dynamical RAM for          nlocal pot:       0.46 MB

     Dynamical RAM for                qrad:       1.48 MB

     Dynamical RAM for          rho,v,vnew:       0.44 MB

     Dynamical RAM for               rhoin:       0.15 MB

     Dynamical RAM for           G-vectors:       0.33 MB

     Dynamical RAM for          h,s,v(r/c):       0.05 MB

     Dynamical RAM for          <psi|beta>:       0.01 MB

     Dynamical RAM for                 psi:       0.31 MB

     Dynamical RAM for                hpsi:       0.31 MB

     Dynamical RAM for                spsi:       0.31 MB

     Dynamical RAM for      wfcinit/wfcrot:       0.31 MB

     Dynamical RAM for           addusdens:       3.53 MB

     Dynamical RAM for          addusforce:       3.88 MB

     Dynamical RAM for         addusstress:       3.84 MB

     Estimated static dynamical RAM per process >       3.75 MB

     Estimated max dynamical RAM per process >       7.63 MB

     Estimated total dynamical RAM >      30.52 MB

     Check: negative core charge=   -0.000019

     Initial potential from superposition of free atoms

     starting charge      23.9993, renormalised to      24.0000
     Starting wfcs are   24 randomized atomic wfcs
     Checking if some PAW data can be deallocated... 
       PAW data deallocated on    1 nodes for type:  1

     total cpu time spent up to now is        1.4 secs

     per-process dynamical memory:    15.8 Mb

     Self-consistent Calculation

     iteration #  1     ecut=    65.00 Ry     beta= 0.70
     Davidson diagonalization with overlap

---- Real-time Memory Report at c_bands before calling an iterative solver
            42 MiB given to the printing process from OS
            15 MiB allocation reported by mallinfo(arena+hblkhd)
          6842 MiB available memory on the node where the printing process lives
------------------
     ethr =  1.00E-02,  avg # of iterations =  3.2

     total cpu time spent up to now is        3.5 secs

     total energy              =     -93.37440390 Ry
     estimated scf accuracy    <       1.10725229 Ry

     iteration #  2     ecut=    65.00 Ry     beta= 0.70
     Davidson diagonalization with overlap

---- Real-time Memory Report at c_bands before calling an iterative solver
            43 MiB given to the printing process from OS
            16 MiB allocation reported by mallinfo(arena+hblkhd)
          6837 MiB available memory on the node where the printing process lives
------------------
     ethr =  4.61E-03,  avg # of iterations =  3.0

     total cpu time spent up to now is        5.6 secs

     total energy              =     -93.15091672 Ry
     estimated scf accuracy    <       3.69355067 Ry

     iteration #  3     ecut=    65.00 Ry     beta= 0.70
     Davidson diagonalization with overlap

---- Real-time Memory Report at c_bands before calling an iterative solver
            43 MiB given to the printing process from OS
            16 MiB allocation reported by mallinfo(arena+hblkhd)
          6835 MiB available memory on the node where the printing process lives
------------------
     ethr =  4.61E-03,  avg # of iterations =  2.0

     total cpu time spent up to now is        7.1 secs

     total energy              =     -93.87053145 Ry
     estimated scf accuracy    <       0.23215973 Ry

     iteration #  4     ecut=    65.00 Ry     beta= 0.70
     Davidson diagonalization with overlap

---- Real-time Memory Report at c_bands before calling an iterative solver
            43 MiB given to the printing process from OS
            16 MiB allocation reported by mallinfo(arena+hblkhd)
          6834 MiB available memory on the node where the printing process lives
------------------
     ethr =  9.67E-04,  avg # of iterations =  1.9

     total cpu time spent up to now is        8.6 secs

     total energy              =     -93.89534912 Ry
     estimated scf accuracy    <       0.02081112 Ry

     iteration #  5     ecut=    65.00 Ry     beta= 0.70
     Davidson diagonalization with overlap

---- Real-time Memory Report at c_bands before calling an iterative solver
            43 MiB given to the printing process from OS
            16 MiB allocation reported by mallinfo(arena+hblkhd)
          6836 MiB available memory on the node where the printing process lives
------------------
     c_bands:  1 eigenvalues not converged
     ethr =  8.67E-05,  avg # of iterations = 10.7

     total cpu time spent up to now is       12.6 secs

     total energy              =     -93.91350897 Ry
     estimated scf accuracy    <       0.01804428 Ry

     iteration #  6     ecut=    65.00 Ry     beta= 0.70
     Davidson diagonalization with overlap

---- Real-time Memory Report at c_bands before calling an iterative solver
            43 MiB given to the printing process from OS
            16 MiB allocation reported by mallinfo(arena+hblkhd)
          6841 MiB available memory on the node where the printing process lives
------------------
     ethr =  7.52E-05,  avg # of iterations =  1.6

     total cpu time spent up to now is       13.9 secs

     total energy              =     -93.91315863 Ry
     estimated scf accuracy    <       0.00424821 Ry

     iteration #  7     ecut=    65.00 Ry     beta= 0.70
     Davidson diagonalization with overlap

---- Real-time Memory Report at c_bands before calling an iterative solver
            43 MiB given to the printing process from OS
            16 MiB allocation reported by mallinfo(arena+hblkhd)
          6841 MiB available memory on the node where the printing process lives
------------------
     c_bands:  2 eigenvalues not converged
     ethr =  1.77E-05,  avg # of iterations =  7.2

     total cpu time spent up to now is       18.1 secs

     total energy              =     -93.91481641 Ry
     estimated scf accuracy    <       0.00103149 Ry

     iteration #  8     ecut=    65.00 Ry     beta= 0.70
     Davidson diagonalization with overlap

---- Real-time Memory Report at c_bands before calling an iterative solver
            43 MiB given to the printing process from OS
            16 MiB allocation reported by mallinfo(arena+hblkhd)
          6754 MiB available memory on the node where the printing process lives
------------------
     c_bands:  1 eigenvalues not converged
     c_bands:  2 eigenvalues not converged
     ethr =  4.30E-06,  avg # of iterations =  8.3

     total cpu time spent up to now is       21.5 secs

     total energy              =     -93.91496961 Ry
     estimated scf accuracy    <       0.00041159 Ry

     iteration #  9     ecut=    65.00 Ry     beta= 0.70
     Davidson diagonalization with overlap

---- Real-time Memory Report at c_bands before calling an iterative solver
            43 MiB given to the printing process from OS
            16 MiB allocation reported by mallinfo(arena+hblkhd)
          6752 MiB available memory on the node where the printing process lives
------------------
     c_bands:  1 eigenvalues not converged
     ethr =  1.71E-06,  avg # of iterations =  4.0

     total cpu time spent up to now is       24.1 secs

     total energy              =     -93.91500256 Ry
     estimated scf accuracy    <       0.00006422 Ry

     iteration # 10     ecut=    65.00 Ry     beta= 0.70
     Davidson diagonalization with overlap

---- Real-time Memory Report at c_bands before calling an iterative solver
            43 MiB given to the printing process from OS
            16 MiB allocation reported by mallinfo(arena+hblkhd)
          6749 MiB available memory on the node where the printing process lives
------------------
     ethr =  2.68E-07,  avg # of iterations =  4.1

     total cpu time spent up to now is       30.9 secs

     total energy              =     -93.91502584 Ry
     estimated scf accuracy    <       0.00000245 Ry

     iteration # 11     ecut=    65.00 Ry     beta= 0.70
     Davidson diagonalization with overlap

---- Real-time Memory Report at c_bands before calling an iterative solver
            43 MiB given to the printing process from OS
            16 MiB allocation reported by mallinfo(arena+hblkhd)
          6756 MiB available memory on the node where the printing process lives
------------------
     ethr =  1.02E-08,  avg # of iterations =  6.5

     total cpu time spent up to now is       39.1 secs

     total energy              =     -93.91503001 Ry
     estimated scf accuracy    <       0.00000062 Ry

     iteration # 12     ecut=    65.00 Ry     beta= 0.70
     Davidson diagonalization with overlap

---- Real-time Memory Report at c_bands before calling an iterative solver
            43 MiB given to the printing process from OS
            16 MiB allocation reported by mallinfo(arena+hblkhd)
          6820 MiB available memory on the node where the printing process lives
------------------
     ethr =  2.57E-09,  avg # of iterations =  2.3

     total cpu time spent up to now is       43.5 secs

     total energy              =     -93.91502993 Ry
     estimated scf accuracy    <       0.00000056 Ry

     iteration # 13     ecut=    65.00 Ry     beta= 0.70
     Davidson diagonalization with overlap

---- Real-time Memory Report at c_bands before calling an iterative solver
            43 MiB given to the printing process from OS
            16 MiB allocation reported by mallinfo(arena+hblkhd)
          6728 MiB available memory on the node where the printing process lives
------------------
     ethr =  2.34E-09,  avg # of iterations =  1.8

     total cpu time spent up to now is       46.8 secs

     total energy              =     -93.91503001 Ry
     estimated scf accuracy    <       0.00000006 Ry

     iteration # 14     ecut=    65.00 Ry     beta= 0.70
     Davidson diagonalization with overlap

---- Real-time Memory Report at c_bands before calling an iterative solver
            43 MiB given to the printing process from OS
            16 MiB allocation reported by mallinfo(arena+hblkhd)
          6726 MiB available memory on the node where the printing process lives
------------------
     ethr =  2.46E-10,  avg # of iterations =  4.8

     total cpu time spent up to now is       53.6 secs

     total energy              =     -93.91503004 Ry
     estimated scf accuracy    <       0.00000003 Ry

     iteration # 15     ecut=    65.00 Ry     beta= 0.70
     Davidson diagonalization with overlap

---- Real-time Memory Report at c_bands before calling an iterative solver
            43 MiB given to the printing process from OS
            16 MiB allocation reported by mallinfo(arena+hblkhd)
          6793 MiB available memory on the node where the printing process lives
------------------
     ethr =  1.05E-10,  avg # of iterations =  2.2

     total cpu time spent up to now is       57.6 secs

     total energy              =     -93.91503004 Ry
     estimated scf accuracy    <          7.3E-09 Ry

     iteration # 16     ecut=    65.00 Ry     beta= 0.70
     Davidson diagonalization with overlap

---- Real-time Memory Report at c_bands before calling an iterative solver
            43 MiB given to the printing process from OS
            16 MiB allocation reported by mallinfo(arena+hblkhd)
          6796 MiB available memory on the node where the printing process lives
------------------
     c_bands:  1 eigenvalues not converged
     ethr =  3.04E-11,  avg # of iterations =  4.6

     total cpu time spent up to now is       62.9 secs

     total energy              =     -93.91503004 Ry
     estimated scf accuracy    <          1.5E-09 Ry

     iteration # 17     ecut=    65.00 Ry     beta= 0.70
     Davidson diagonalization with overlap

---- Real-time Memory Report at c_bands before calling an iterative solver
            43 MiB given to the printing process from OS
            16 MiB allocation reported by mallinfo(arena+hblkhd)
          6799 MiB available memory on the node where the printing process lives
------------------
     ethr =  6.30E-12,  avg # of iterations =  3.3

     total cpu time spent up to now is       66.7 secs

     End of self-consistent calculation

          k = 0.0625 0.0625 0.0269 (  2517 PWs)   bands (ev):

   -10.8834  -8.6786  -7.0729   0.5642   1.7016   2.8970   2.9981   5.3775
     5.4821   6.4249   8.6387   8.7765  12.6236  14.7674  15.7237  16.2808

     occupation numbers 
     1.0000   1.0000   1.0000   1.0000   1.0000   1.0000   1.0000   1.0000
     1.0000   1.0000   0.9998   0.9981   0.0000   0.0000   0.0000   0.0000

          k = 0.0625 0.0625 0.0808 (  2521 PWs)   bands (ev):

   -10.8418  -8.8859  -6.8173  -0.0936   2.4179   2.9282   3.0622   5.2096
     5.3942   6.2775   8.8039   8.9201  12.6170  14.7769  15.6056  15.9831

     occupation numbers 
     1.0000   1.0000   1.0000   1.0000   1.0000   1.0000   1.0000   1.0000
     1.0000   1.0000   0.9970   0.9839   0.0000   0.0000   0.0000   0.0000

          k = 0.0625 0.0625 0.1347 (  2524 PWs)   bands (ev):

   -10.7752  -9.1313  -6.5000  -0.6702   2.8835   2.9954   3.4051   4.9554
     5.2775   5.9941   9.0426   9.1295  12.5979  14.7910  15.3294  15.7514

     occupation numbers 
     1.0000   1.0000   1.0000   1.0000   1.0000   1.0000   1.0000   1.0000
     1.0000   1.0000   0.9341   0.8543   0.0000   0.0000   0.0000   0.0000

          k = 0.0625 0.0625 0.1886 (  2515 PWs)   bands (ev):

   -10.7205  -9.2900  -6.2883  -1.0057   2.9540   3.0512   4.0176   4.6429
     5.2121   5.7146   9.2203   9.2792  12.5752  14.8050  15.0871  15.5265

     occupation numbers 
     1.0000   1.0000   1.0000   1.0000   1.0000   1.0000   1.0000   1.0000
     1.0000   1.0000   0.7201   0.6090   0.0000   0.0000   0.0000   0.0000

          k = 0.0625 0.1875 0.0269 (  2530 PWs)   bands (ev):

   -10.4837  -8.3020  -6.8108   0.4904   1.2069   1.6974   3.1722   4.1681
     5.6038   5.8841   7.6270   8.8025  13.4490  14.8133  16.0708  16.4958

     occupation numbers 
     1.0000   1.0000   1.0000   1.0000   1.0000   1.0000   1.0000   1.0000
     1.0000   1.0000   1.0000   0.9971   0.0000   0.0000   0.0000   0.0000

          k = 0.0625 0.1875 0.0808 (  2532 PWs)   bands (ev):

   -10.4448  -8.4990  -6.5780   0.0439   1.1822   2.2036   3.1971   3.9924
     5.5717   5.9139   7.6840   8.9290  13.3095  14.7209  16.0566  16.2908

     occupation numbers 
     1.0000   1.0000   1.0000   1.0000   1.0000   1.0000   1.0000   1.0000
     1.0000   1.0000   1.0000   0.9820   0.0000   0.0000   0.0000   0.0000

          k = 0.0625 0.1875 0.1347 (  2530 PWs)   bands (ev):

   -10.3830  -8.7315  -6.2940  -0.4091   1.2308   2.6171   3.2293   3.8681
     5.4671   5.8858   7.8221   9.1090  13.0932  14.5970  15.8969  16.1833

     occupation numbers 
     1.0000   1.0000   1.0000   1.0000   1.0000   1.0000   1.0000   1.0000
     1.0000   1.0000   1.0000   0.8773   0.0000   0.0000   0.0000   0.0000

          k = 0.0625 0.1875 0.1886 (  2539 PWs)   bands (ev):

   -10.3329  -8.8811  -6.1082  -0.6797   1.2769   2.7813   3.2431   3.9088
     5.3847   5.7906   7.9581   9.2371  12.9263  14.5102  15.7391  16.1725

     occupation numbers 
     1.0000   1.0000   1.0000   1.0000   1.0000   1.0000   1.0000   1.0000
     1.0000   1.0000   1.0000   0.6900   0.0000   0.0000   0.0000   0.0000

          k = 0.0625 0.3125 0.0269 (  2518 PWs)   bands (ev):

    -9.7750  -7.6364  -6.4694  -0.9332   0.2329   1.2079   3.4578   3.6012
     4.7868   6.1117   6.6227   8.9025  12.6365  14.9185  16.4008  17.3719

     occupation numbers 
     1.0000   1.0000   1.0000   1.0000   1.0000   1.0000   1.0000   1.0000
     1.0000   1.0000   1.0000   0.9873   0.0000   0.0000   0.0000   0.0000

          k = 0.0625 0.3125 0.0808 (  2522 PWs)   bands (ev):

    -9.7438  -7.8032  -6.2975  -0.8991   0.0852   1.3403   3.1352   3.5711
     5.2444   6.0436   6.5132   8.9751  12.6067  14.8953  16.3216  17.3612

     occupation numbers 
     1.0000   1.0000   1.0000   1.0000   1.0000   1.0000   1.0000   1.0000
     1.0000   1.0000   1.0000   0.9684   0.0000   0.0000   0.0000   0.0000

          k = 0.0625 0.3125 0.1347 (  2527 PWs)   bands (ev):

    -9.6953  -7.9984  -6.0979  -0.8824   0.0197   1.3042   2.9641   3.5865
     5.5921   5.9658   6.4177   9.0761  12.5493  14.8512  16.2323  17.4113

     occupation numbers 
     1.0000   1.0000   1.0000   1.0000   1.0000   1.0000   1.0000   1.0000
     1.0000   1.0000   1.0000   0.9086   0.0000   0.0000   0.0000   0.0000

          k = 0.0625 0.3125 0.1886 (  2528 PWs)   bands (ev):

    -9.6573  -8.1222  -5.9735  -0.9016   0.0809   1.1209   2.9988   3.5997
     5.6250   5.9481   6.4566   9.1466  12.4978  14.8124  16.1811  17.4820

     occupation numbers 
     1.0000   1.0000   1.0000   1.0000   1.0000   1.0000   1.0000   1.0000
     1.0000   1.0000   1.0000   0.8330   0.0000   0.0000   0.0000   0.0000

          k = 0.0625 0.4375 0.0269 (  2530 PWs)   bands (ev):

    -9.0746  -6.9172  -6.4539  -2.0288  -0.8596   0.9639   3.3611   3.8751
     4.5433   5.8762   6.4086   8.9441  11.7322  15.1984  16.6520  17.6341

     occupation numbers 
     1.0000   1.0000   1.0000   1.0000   1.0000   1.0000   1.0000   1.0000
     1.0000   1.0000   1.0000   0.9782   0.0000   0.0000   0.0000   0.0000

          k = 0.0625 0.4375 0.0808 (  2531 PWs)   bands (ev):

    -9.0587  -7.0032  -6.3973  -2.0688  -0.6994   1.1024   2.7092   3.8679
     5.1179   5.6758   6.3912   8.9555  11.8879  15.1739  16.6725  17.6279

     occupation numbers 
     1.0000   1.0000   1.0000   1.0000   1.0000   1.0000   1.0000   1.0000
     1.0000   1.0000   1.0000   0.9750   0.0000   0.0000   0.0000   0.0000

          k = 0.0625 0.4375 0.1347 (  2525 PWs)   bands (ev):

    -9.0353  -7.1051  -6.3374  -2.1321  -0.3763   1.2126   2.1009   3.8732
     5.3856   5.6172   6.3642   8.9717  12.0998  15.1409  16.6964  17.6348

     occupation numbers 
     1.0000   1.0000   1.0000   1.0000   1.0000   1.0000   1.0000   1.0000
     1.0000   1.0000   1.0000   0.9696   0.0000   0.0000   0.0000   0.0000

          k = 0.0625 0.4375 0.1886 (  2520 PWs)   bands (ev):

    -9.0180  -7.1697  -6.3028  -2.1788   0.0182   0.9847   1.9014   3.8780
     5.1718   5.8999   6.3414   8.9831  12.2447  15.1187  16.7088  17.7010

     occupation numbers 
     1.0000   1.0000   1.0000   1.0000   1.0000   1.0000   1.0000   1.0000
     1.0000   1.0000   1.0000   0.9653   0.0000   0.0000   0.0000   0.0000

          k = 0.1875 0.1875 0.0269 (  2519 PWs)   bands (ev):

   -10.0935  -7.9375  -6.5534   0.5890   1.0958   1.6710   1.9705   4.1164
     4.5966   5.4635   7.2637   7.9772  13.4054  14.3922  17.0120  17.2579

     occupation numbers 
     1.0000   1.0000   1.0000   1.0000   1.0000   1.0000   1.0000   1.0000
     1.0000   1.0000   1.0000   1.0000   0.0000   0.0000   0.0000   0.0000

          k = 0.1875 0.1875 0.0808 (  2515 PWs)   bands (ev):

   -10.0573  -8.1236  -6.3421   0.2231   1.2249   1.6427   2.2983   3.7979
     4.6436   5.5422   7.4167   8.0160  13.2887  14.1797  17.0135  17.5248

     occupation numbers 
     1.0000   1.0000   1.0000   1.0000   1.0000   1.0000   1.0000   1.0000
     1.0000   1.0000   1.0000   1.0000   0.0000   0.0000   0.0000   0.0000

          k = 0.1875 0.1875 0.1347 (  2519 PWs)   bands (ev):

   -10.0003  -8.3428  -6.0883  -0.1398   1.3076   1.6885   2.6363   3.4466
     4.6500   5.5893   7.6222   8.0986  13.0930  13.9420  17.0021  17.6354

     occupation numbers 
     1.0000   1.0000   1.0000   1.0000   1.0000   1.0000   1.0000   1.0000
     1.0000   1.0000   1.0000   1.0000   0.0000   0.0000   0.0000   0.0000

          k = 0.1875 0.1875 0.1886 (  2515 PWs)   bands (ev):

    -9.9545  -8.4830  -5.9249  -0.3575   1.3489   1.7436   2.8949   3.1546
     4.6817   5.5625   7.7784   8.1638  12.9365  13.8031  16.9874  17.7106

     occupation numbers 
     1.0000   1.0000   1.0000   1.0000   1.0000   1.0000   1.0000   1.0000
     1.0000   1.0000   1.0000   1.0000   0.0000   0.0000   0.0000   0.0000

          k = 0.1875 0.3125 0.0269 (  2514 PWs)   bands (ev):

    -9.4043  -7.2942  -6.2169  -0.5714   0.4734   1.3202   2.1303   3.3827
     4.4242   5.1373   6.3593   7.7482  12.1813  13.9236  16.4957  18.0410

     occupation numbers 
     1.0000   1.0000   1.0000   1.0000   1.0000   1.0000   1.0000   1.0000
     1.0000   1.0000   1.0000   1.0000   0.0000   0.0000   0.0000   0.0000

          k = 0.1875 0.3125 0.0808 (  2517 PWs)   bands (ev):

    -9.3756  -7.4501  -6.0610  -0.5374   0.3605   1.4168   2.1613   3.0617
     4.6699   5.1205   6.3775   7.7778  12.2114  13.7762  16.7428  18.0691

     occupation numbers 
     1.0000   1.0000   1.0000   1.0000   1.0000   1.0000   1.0000   1.0000
     1.0000   1.0000   1.0000   1.0000   0.0000   0.0000   0.0000   0.0000

          k = 0.1875 0.3125 0.1347 (  2520 PWs)   bands (ev):

    -9.3314  -7.6322  -5.8815  -0.5140   0.3111   1.4152   2.1718   2.8612
     4.7062   5.2406   6.3922   7.8348  12.2368  13.5980  17.1678  18.1201

     occupation numbers 
     1.0000   1.0000   1.0000   1.0000   1.0000   1.0000   1.0000   1.0000
     1.0000   1.0000   1.0000   1.0000   0.0000   0.0000   0.0000   0.0000

          k = 0.1875 0.3125 0.1886 (  2531 PWs)   bands (ev):

    -9.2970  -7.7473  -5.7707  -0.5221   0.3615   1.3018   2.1596   2.8416
     4.6656   5.3240   6.4166   7.8812  12.2405  13.4917  17.6392  18.1745

     occupation numbers 
     1.0000   1.0000   1.0000   1.0000   1.0000   1.0000   1.0000   1.0000
     1.0000   1.0000   1.0000   1.0000   0.0000   0.0000   0.0000   0.0000

          k = 0.1875 0.4375 0.0269 (  2527 PWs)   bands (ev):

    -8.7308  -6.6080  -6.1807  -1.6216  -0.5269   1.3033   2.4088   3.2034
     4.2495   5.3599   5.6772   7.6506  11.2051  13.5964  16.2289  18.8066

     occupation numbers 
     1.0000   1.0000   1.0000   1.0000   1.0000   1.0000   1.0000   1.0000
     1.0000   1.0000   1.0000   1.0000   0.0000   0.0000   0.0000   0.0000

          k = 0.1875 0.4375 0.0808 (  2523 PWs)   bands (ev):

    -8.7165  -6.6859  -6.1296  -1.6547  -0.3801   1.4121   2.3630   2.7529
     4.6224   5.3163   5.5857   7.6236  11.3723  13.4991  16.4942  18.7827

     occupation numbers 
     1.0000   1.0000   1.0000   1.0000   1.0000   1.0000   1.0000   1.0000
     1.0000   1.0000   1.0000   1.0000   0.0000   0.0000   0.0000   0.0000

          k = 0.1875 0.4375 0.1347 (  2520 PWs)   bands (ev):

    -8.6955  -6.7782  -6.0755  -1.7075  -0.0886   1.4556   2.1262   2.5432
     4.8858   5.2408   5.5100   7.5974  11.6090  13.3592  16.9899  18.7299

     occupation numbers 
     1.0000   1.0000   1.0000   1.0000   1.0000   1.0000   1.0000   1.0000
     1.0000   1.0000   1.0000   1.0000   0.0000   0.0000   0.0000   0.0000

          k = 0.1875 0.4375 0.1886 (  2512 PWs)   bands (ev):

    -8.6800  -6.8367  -6.0442  -1.7469   0.2593   1.1862   2.0569   2.5232
     4.9341   5.1787   5.5370   7.5851  11.7810  13.2551  17.6333  18.4789

     occupation numbers 
     1.0000   1.0000   1.0000   1.0000   1.0000   1.0000   1.0000   1.0000
     1.0000   1.0000   1.0000   1.0000   0.0000   0.0000   0.0000   0.0000

          k = 0.3125 0.3125 0.0269 (  2516 PWs)   bands (ev):

    -8.7575  -6.7054  -5.8674  -0.2195   0.4618   0.7411   1.5193   2.7931
     3.7498   4.8339   5.5918   6.9174  10.6395  13.7024  15.7301  18.5158

     occupation numbers 
     1.0000   1.0000   1.0000   1.0000   1.0000   1.0000   1.0000   1.0000
     1.0000   1.0000   1.0000   1.0000   0.0000   0.0000   0.0000   0.0000

          k = 0.3125 0.3125 0.0808 (  2516 PWs)   bands (ev):

    -8.7354  -6.8315  -5.7518  -0.1780   0.4748   0.6803   1.5838   2.5934
     3.9522   4.6510   5.7624   6.8010  10.8027  13.4732  16.0141  18.2925

     occupation numbers 
     1.0000   1.0000   1.0000   1.0000   1.0000   1.0000   1.0000   1.0000
     1.0000   1.0000   1.0000   1.0000   0.0000   0.0000   0.0000   0.0000

          k = 0.3125 0.3125 0.1347 (  2517 PWs)   bands (ev):

    -8.7021  -6.9784  -5.6218  -0.1000   0.3593   0.7610   1.6211   2.3793
     4.0838   4.5808   5.8989   6.6519  11.0426  13.1468  16.5379  18.0993

     occupation numbers 
     1.0000   1.0000   1.0000   1.0000   1.0000   1.0000   1.0000   1.0000
     1.0000   1.0000   1.0000   1.0000   0.0000   0.0000   0.0000   0.0000

          k = 0.3125 0.3125 0.1886 (  2511 PWs)   bands (ev):

    -8.6767  -7.0706  -5.5433  -0.0058   0.2222   0.8672   1.6235   2.2330
     4.0924   4.6365   5.9537   6.5602  11.2300  12.9017  17.1998  17.8746

     occupation numbers 
     1.0000   1.0000   1.0000   1.0000   1.0000   1.0000   1.0000   1.0000
     1.0000   1.0000   1.0000   1.0000   0.0000   0.0000   0.0000   0.0000

          k = 0.3125 0.4375 0.0269 (  2513 PWs)   bands (ev):

    -8.1388  -6.0994  -5.7622  -0.9188   0.0423   0.8043   1.7561   2.3328
     3.5428   4.8002   4.9759   6.5375   9.4846  13.6704  15.6160  17.6333

     occupation numbers 
     1.0000   1.0000   1.0000   1.0000   1.0000   1.0000   1.0000   1.0000
     1.0000   1.0000   1.0000   1.0000   0.2145   0.0000   0.0000   0.0000

          k = 0.3125 0.4375 0.0808 (  2510 PWs)   bands (ev):

    -8.1283  -6.1568  -5.7238  -0.9380   0.0975   0.8370   1.7649   2.2713
     3.6480   4.6788   5.0149   6.3323   9.7847  13.3923  15.8959  17.5213

     occupation numbers 
     1.0000   1.0000   1.0000   1.0000   1.0000   1.0000   1.0000   1.0000
     1.0000   1.0000   1.0000   1.0000   0.0094   0.0000   0.0000   0.0000

          k = 0.3125 0.4375 0.1347 (  2505 PWs)   bands (ev):

    -8.1131  -6.2252  -5.6826  -0.9676   0.1900   0.8846   1.7171   2.2614
     3.7548   4.5768   5.0180   6.0737  10.2195  12.9818  16.3431  17.3460

     occupation numbers 
     1.0000   1.0000   1.0000   1.0000   1.0000   1.0000   1.0000   1.0000
     1.0000   1.0000   1.0000   1.0000   0.0000   0.0000   0.0000   0.0000

          k = 0.3125 0.4375 0.1886 (  2515 PWs)   bands (ev):

    -8.1021  -6.2684  -5.6587  -0.9899   0.2678   0.9161   1.6536   2.2897
     3.8007   4.5431   4.9997   5.9063  10.5681  12.6488  16.6973  17.2411

     occupation numbers 
     1.0000   1.0000   1.0000   1.0000   1.0000   1.0000   1.0000   1.0000
     1.0000   1.0000   1.0000   1.0000   0.0000   0.0000   0.0000   0.0000

          k = 0.4375 0.4375 0.0269 (  2506 PWs)   bands (ev):

    -7.5880  -5.6448  -5.4895  -0.3475  -0.1323   0.6238   1.0377   2.6056
     2.8852   3.7954   4.9341   6.0477   8.2094  14.0869  15.8050  16.4949

     occupation numbers 
     1.0000   1.0000   1.0000   1.0000   1.0000   1.0000   1.0000   1.0000
     1.0000   1.0000   1.0000   1.0000   1.0000   0.0000   0.0000   0.0000

          k = 0.4375 0.4375 0.0808 (  2499 PWs)   bands (ev):

    -7.5835  -5.6654  -5.4743  -0.3604  -0.1651   0.3587   1.4569   2.6281
     2.9701   3.8585   4.7087   5.6671   8.7057  13.6780  15.8835  16.2391

     occupation numbers 
     1.0000   1.0000   1.0000   1.0000   1.0000   1.0000   1.0000   1.0000
     1.0000   1.0000   1.0000   1.0000   0.9994   0.0000   0.0000   0.0000

          k = 0.4375 0.4375 0.1347 (  2490 PWs)   bands (ev):

    -7.5772  -5.6902  -5.4571  -0.3693  -0.2225   0.1790   1.9068   2.6374
     3.1363   3.9683   4.3460   5.1964   9.3680  13.0686  15.8516  15.9692

     occupation numbers 
     1.0000   1.0000   1.0000   1.0000   1.0000   1.0000   1.0000   1.0000
     1.0000   1.0000   1.0000   1.0000   0.4267   0.0000   0.0000   0.0000

          k = 0.4375 0.4375 0.1886 (  2499 PWs)   bands (ev):

    -7.5727  -5.7060  -5.4467  -0.3589  -0.2823   0.0934   2.2756   2.5814
     3.4037   3.7845   4.2756   4.8059   9.8992  12.5541  15.7399  15.8348

     occupation numbers 
     1.0000   1.0000   1.0000   1.0000   1.0000   1.0000   1.0000   1.0000
     1.0000   1.0000   1.0000   1.0000   0.0016   0.0000   0.0000   0.0000

          k = 0.1875 0.0625-0.0269 (  2530 PWs)   bands (ev):

   -10.4842  -8.3040  -6.8089   0.4796   1.1908   1.6954   3.2280   4.2347
     5.5491   5.8441   7.5954   8.8354  13.4058  14.8421  16.0521  16.5027

     occupation numbers 
     1.0000   1.0000   1.0000   1.0000   1.0000   1.0000   1.0000   1.0000
     1.0000   1.0000   1.0000   0.9951   0.0000   0.0000   0.0000   0.0000

          k = 0.1875 0.0625-0.0808 (  2532 PWs)   bands (ev):

   -10.4453  -8.5005  -6.5766   0.0432   1.1442   2.2169   3.2545   4.0473
     5.4995   5.8996   7.6553   8.9587  13.2606  14.7571  16.0409  16.2922

     occupation numbers 
     1.0000   1.0000   1.0000   1.0000   1.0000   1.0000   1.0000   1.0000
     1.0000   1.0000   1.0000   0.9740   0.0000   0.0000   0.0000   0.0000

          k = 0.1875 0.0625-0.1347 (  2530 PWs)   bands (ev):

   -10.3836  -8.7327  -6.2930  -0.4075   1.1837   2.6499   3.2895   3.9032
     5.3926   5.8774   7.8005   9.1347  13.0374  14.6417  15.8934  16.1688

     occupation numbers 
     1.0000   1.0000   1.0000   1.0000   1.0000   1.0000   1.0000   1.0000
     1.0000   1.0000   1.0000   0.8480   0.0000   0.0000   0.0000   0.0000

          k = 0.1875 0.0625-0.1886 (  2539 PWs)   bands (ev):

   -10.3334  -8.8821  -6.1074  -0.6776   1.2245   2.8348   3.3058   3.9233
     5.3158   5.7774   7.9425   9.2602  12.8663  14.5597  15.7385  16.1523

     occupation numbers 
     1.0000   1.0000   1.0000   1.0000   1.0000   1.0000   1.0000   1.0000
     1.0000   1.0000   1.0000   0.6464   0.0000   0.0000   0.0000   0.0000

          k = 0.3125 0.0625-0.0269 (  2518 PWs)   bands (ev):

    -9.7765  -7.6432  -6.4636  -0.9636   0.2657   1.2137   3.4904   3.6518
     4.7942   6.0007   6.6001   8.9415  12.5711  14.9783  16.4034  17.3322

     occupation numbers 
     1.0000   1.0000   1.0000   1.0000   1.0000   1.0000   1.0000   1.0000
     1.0000   1.0000   1.0000   0.9789   0.0000   0.0000   0.0000   0.0000

          k = 0.3125 0.0625-0.0808 (  2522 PWs)   bands (ev):

    -9.7453  -7.8088  -6.2929  -0.9302   0.1080   1.3619   3.1477   3.6358
     5.2541   5.9367   6.4877   9.0115  12.5395  14.9565  16.3225  17.3432

     occupation numbers 
     1.0000   1.0000   1.0000   1.0000   1.0000   1.0000   1.0000   1.0000
     1.0000   1.0000   1.0000   0.9524   0.0000   0.0000   0.0000   0.0000

          k = 0.3125 0.0625-0.1347 (  2527 PWs)   bands (ev):

    -9.6968  -8.0030  -6.0940  -0.9111   0.0273   1.3462   2.9690   3.6539
     5.5918   5.8677   6.3945   9.1094  12.4798  14.9137  16.2337  17.4017

     occupation numbers 
     1.0000   1.0000   1.0000   1.0000   1.0000   1.0000   1.0000   1.0000
     1.0000   1.0000   1.0000   0.8769   0.0000   0.0000   0.0000   0.0000

          k = 0.3125 0.0625-0.1886 (  2528 PWs)   bands (ev):

    -9.6588  -8.1265  -5.9698  -0.9258   0.0694   1.1802   3.0024   3.6688
     5.6029   5.8582   6.4464   9.1778  12.4269  14.8754  16.1843  17.4647

     occupation numbers 
     1.0000   1.0000   1.0000   1.0000   1.0000   1.0000   1.0000   1.0000
     1.0000   1.0000   1.0000   0.7892   0.0000   0.0000   0.0000   0.0000

          k = 0.4375 0.0625-0.0269 (  2530 PWs)   bands (ev):

    -9.0774  -6.9348  -6.4410  -2.0503  -0.8130   0.9626   3.3543   3.9445
     4.5663   5.8603   6.2809   8.9894  11.6726  15.2435  16.6547  17.6705

     occupation numbers 
     1.0000   1.0000   1.0000   1.0000   1.0000   1.0000   1.0000   1.0000
     1.0000   1.0000   1.0000   0.9627   0.0000   0.0000   0.0000   0.0000

          k = 0.4375 0.0625-0.0808 (  2531 PWs)   bands (ev):

    -9.0613  -7.0209  -6.3835  -2.0913  -0.6536   1.1048   2.7080   3.9398
     5.1312   5.6575   6.2638   8.9999  11.8272  15.2197  16.6744  17.6853

     occupation numbers 
     1.0000   1.0000   1.0000   1.0000   1.0000   1.0000   1.0000   1.0000
     1.0000   1.0000   1.0000   0.9581   0.0000   0.0000   0.0000   0.0000

          k = 0.4375 0.0625-0.1347 (  2525 PWs)   bands (ev):

    -9.0376  -7.1235  -6.3217  -2.1553  -0.3302   1.2212   2.0981   3.9462
     5.3638   5.6264   6.2372   9.0150  12.0371  15.1881  16.6984  17.7126

     occupation numbers 
     1.0000   1.0000   1.0000   1.0000   1.0000   1.0000   1.0000   1.0000
     1.0000   1.0000   1.0000   0.9505   0.0000   0.0000   0.0000   0.0000

          k = 0.4375 0.0625-0.1886 (  2520 PWs)   bands (ev):

    -9.0201  -7.1886  -6.2856  -2.2025   0.0725   0.9869   1.8995   3.9516
     5.1468   5.9085   6.2132   9.0257  12.1801  15.1671  16.7122  17.7795

     occupation numbers 
     1.0000   1.0000   1.0000   1.0000   1.0000   1.0000   1.0000   1.0000
     1.0000   1.0000   1.0000   0.9446   0.0000   0.0000   0.0000   0.0000

          k = 0.3125 0.1875-0.0269 (  2514 PWs)   bands (ev):

    -9.4052  -7.2988  -6.2132  -0.6033   0.5030   1.3282   2.1787   3.3978
     4.3915   5.0904   6.3406   7.7800  12.1356  13.9683  16.5163  18.0329

     occupation numbers 
     1.0000   1.0000   1.0000   1.0000   1.0000   1.0000   1.0000   1.0000
     1.0000   1.0000   1.0000   1.0000   0.0000   0.0000   0.0000   0.0000

          k = 0.3125 0.1875-0.0808 (  2517 PWs)   bands (ev):

    -9.3765  -7.4540  -6.0579  -0.5701   0.3805   1.4399   2.2107   3.0694
     4.6065   5.1095   6.3560   7.8077  12.1650  13.8205  16.7632  18.0649

     occupation numbers 
     1.0000   1.0000   1.0000   1.0000   1.0000   1.0000   1.0000   1.0000
     1.0000   1.0000   1.0000   1.0000   0.0000   0.0000   0.0000   0.0000

          k = 0.3125 0.1875-0.1347 (  2520 PWs)   bands (ev):

    -9.3323  -7.6356  -5.8788  -0.5448   0.3158   1.4584   2.2255   2.8587
     4.6251   5.2475   6.3718   7.8618  12.1895  13.6422  17.1868  18.1228

     occupation numbers 
     1.0000   1.0000   1.0000   1.0000   1.0000   1.0000   1.0000   1.0000
     1.0000   1.0000   1.0000   1.0000   0.0000   0.0000   0.0000   0.0000

          k = 0.3125 0.1875-0.1886 (  2531 PWs)   bands (ev):

    -9.2979  -7.7506  -5.7680  -0.5488   0.3476   1.3629   2.2161   2.8330
     4.5879   5.3250   6.3998   7.9061  12.1928  13.5357  17.6497  18.1934

     occupation numbers 
     1.0000   1.0000   1.0000   1.0000   1.0000   1.0000   1.0000   1.0000
     1.0000   1.0000   1.0000   1.0000   0.0000   0.0000   0.0000   0.0000

          k = 0.4375 0.1875-0.0269 (  2527 PWs)   bands (ev):

    -8.7329  -6.6219  -6.1713  -1.6463  -0.4807   1.3065   2.4651   3.1941
     4.2406   5.2826   5.6592   7.6902  11.1542  13.6356  16.2771  18.8036

     occupation numbers 
     1.0000   1.0000   1.0000   1.0000   1.0000   1.0000   1.0000   1.0000
     1.0000   1.0000   1.0000   1.0000   0.0000   0.0000   0.0000   0.0000

          k = 0.4375 0.1875-0.0808 (  2523 PWs)   bands (ev):

    -8.7184  -6.7007  -6.1185  -1.6803  -0.3341   1.4184   2.4014   2.7695
     4.5848   5.2666   5.5579   7.6607  11.3238  13.5364  16.5435  18.7881

     occupation numbers 
     1.0000   1.0000   1.0000   1.0000   1.0000   1.0000   1.0000   1.0000
     1.0000   1.0000   1.0000   1.0000   0.0000   0.0000   0.0000   0.0000

          k = 0.4375 0.1875-0.1347 (  2520 PWs)   bands (ev):

    -8.6971  -6.7943  -6.0620  -1.7337  -0.0413   1.4653   2.1250   2.6018
     4.8015   5.2302   5.4815   7.6315  11.5631  13.3944  17.0419  18.7472

     occupation numbers 
     1.0000   1.0000   1.0000   1.0000   1.0000   1.0000   1.0000   1.0000
     1.0000   1.0000   1.0000   1.0000   0.0000   0.0000   0.0000   0.0000

          k = 0.4375 0.1875-0.1886 (  2512 PWs)   bands (ev):

    -8.6814  -6.8536  -6.0292  -1.7734   0.3169   1.1824   2.0575   2.5876
     4.8375   5.1509   5.5329   7.6175  11.7361  13.2893  17.6892  18.5415

     occupation numbers 
     1.0000   1.0000   1.0000   1.0000   1.0000   1.0000   1.0000   1.0000
     1.0000   1.0000   1.0000   1.0000   0.0000   0.0000   0.0000   0.0000

          k = 0.4375 0.3125-0.0269 (  2513 PWs)   bands (ev):

    -8.1398  -6.1051  -5.7597  -0.9495   0.0870   0.8523   1.7492   2.3108
     3.5079   4.8040   4.9611   6.5534   9.4729  13.6761  15.6587  17.5599

     occupation numbers 
     1.0000   1.0000   1.0000   1.0000   1.0000   1.0000   1.0000   1.0000
     1.0000   1.0000   1.0000   1.0000   0.2328   0.0000   0.0000   0.0000

          k = 0.4375 0.3125-0.0808 (  2510 PWs)   bands (ev):

    -8.1292  -6.1647  -5.7187  -0.9696   0.1428   0.8836   1.7541   2.2634
     3.5994   4.6810   5.0055   6.3470   9.7758  13.3956  15.9435  17.4609

     occupation numbers 
     1.0000   1.0000   1.0000   1.0000   1.0000   1.0000   1.0000   1.0000
     1.0000   1.0000   1.0000   1.0000   0.0106   0.0000   0.0000   0.0000

          k = 0.4375 0.3125-0.1347 (  2505 PWs)   bands (ev):

    -8.1138  -6.2351  -5.6748  -1.0002   0.2368   0.9247   1.7100   2.2653
     3.6871   4.5849   5.0087   6.0888  10.2136  12.9825  16.4044  17.2921

     occupation numbers 
     1.0000   1.0000   1.0000   1.0000   1.0000   1.0000   1.0000   1.0000
     1.0000   1.0000   1.0000   1.0000   0.0000   0.0000   0.0000   0.0000

          k = 0.4375 0.3125-0.1886 (  2515 PWs)   bands (ev):

    -8.1026  -6.2795  -5.6493  -1.0229   0.3174   0.9449   1.6599   2.2949
     3.7210   4.5558   4.9885   5.9231  10.5643  12.6477  16.7850  17.1753

     occupation numbers 
     1.0000   1.0000   1.0000   1.0000   1.0000   1.0000   1.0000   1.0000
     1.0000   1.0000   1.0000   1.0000   0.0000   0.0000   0.0000   0.0000

     the Fermi energy is     9.3325 ev

!    total energy              =     -93.91503004 Ry
     estimated scf accuracy    <          4.7E-10 Ry
     smearing contrib. (-TS)   =      -0.00233174 Ry
     internal energy E=F+TS    =     -93.91269830 Ry

     The total energy is F=E-TS. E is the sum of the following terms:
     one-electron contribution =       1.60557251 Ry
     hartree contribution      =      14.55051762 Ry
     xc contribution           =     -25.01415656 Ry
     ewald contribution        =     -70.63565905 Ry
     one-center paw contrib.   =     -14.41897281 Ry
      -> PAW hartree energy AE =       3.16844054 Ry
      -> PAW hartree energy PS =      -3.16034429 Ry
      -> PAW xc energy AE      =      -7.14640155 Ry
      -> PAW xc energy PS      =       2.32873194 Ry
      -> total E_H with PAW    =      14.55861387 Ry
      -> total E_XC with PAW   =     -29.83182617 Ry

     convergence has been achieved in  17 iterations

     Forces acting on atoms (cartesian axes, Ry/au):

     atom    1 type  2   force =     0.00000000    0.00000000    0.01065666
     atom    2 type  1   force =     0.00000000    0.00000000   -0.00153169
     atom    3 type  2   force =     0.00000000    0.00000000    0.00530479
     atom    4 type  2   force =     0.00000000    0.00000000   -0.01749268
     atom    5 type  1   force =     0.00000000    0.00000000    0.01066469
     atom    6 type  1   force =     0.00000000    0.00000000   -0.00760178
     The non-local contrib.  to forces
     atom    1 type  2   force =     0.00000000    0.00000000    0.02452409
     atom    2 type  1   force =     0.00000000    0.00000000   -0.43221044
     atom    3 type  2   force =     0.00000000    0.00000000   -0.12110915
     atom    4 type  2   force =     0.00000000    0.00000000    0.10087143
     atom    5 type  1   force =     0.00000000    0.00000000    0.00687611
     atom    6 type  1   force =     0.00000000    0.00000000    0.42351782
     The ionic contribution  to forces
     atom    1 type  2   force =    -0.00000000   -0.00000000    0.04998947
     atom    2 type  1   force =    -0.00000000   -0.00000000   -1.07620149
     atom    3 type  2   force =    -0.00000000   -0.00000000    0.14669064
     atom    4 type  2   force =    -0.00000000   -0.00000000   -0.19668011
     atom    5 type  1   force =    -0.00000000   -0.00000000    0.00982881
     atom    6 type  1   force =    -0.00000000    0.00000000    1.06637268
     The local contribution  to forces
     atom    1 type  2   force =     0.00000000    0.00000000   -0.06357350
     atom    2 type  1   force =     0.00000000    0.00000000    1.47783216
     atom    3 type  2   force =     0.00000000   -0.00000000   -0.01764384
     atom    4 type  2   force =     0.00000000    0.00000000    0.07545588
     atom    5 type  1   force =     0.00000000    0.00000000   -0.00561530
     atom    6 type  1   force =     0.00000000   -0.00000000   -1.46895199
     The core correction contribution to forces
     atom    1 type  2   force =    -0.00000000   -0.00000000   -0.00028531
     atom    2 type  1   force =     0.00000000   -0.00000000    0.02903494
     atom    3 type  2   force =     0.00000000   -0.00000000   -0.00265376
     atom    4 type  2   force =    -0.00000000    0.00000000    0.00288456
     atom    5 type  1   force =     0.00000000    0.00000000   -0.00042202
     atom    6 type  1   force =    -0.00000000   -0.00000000   -0.02853129
     The Hubbard contrib.    to forces
     atom    1 type  2   force =     0.00000000    0.00000000    0.00000000
     atom    2 type  1   force =     0.00000000    0.00000000    0.00000000
     atom    3 type  2   force =     0.00000000    0.00000000    0.00000000
     atom    4 type  2   force =     0.00000000    0.00000000    0.00000000
     atom    5 type  1   force =     0.00000000    0.00000000    0.00000000
     atom    6 type  1   force =     0.00000000    0.00000000    0.00000000
     The SCF correction term to forces
     atom    1 type  2   force =     0.00000000   -0.00000000    0.00000177
     atom    2 type  1   force =     0.00000000   -0.00000000    0.00001300
     atom    3 type  2   force =    -0.00000000    0.00000000    0.00002076
     atom    4 type  2   force =     0.00000000   -0.00000000   -0.00002459
     atom    5 type  1   force =    -0.00000000   -0.00000000   -0.00000306
     atom    6 type  1   force =    -0.00000000    0.00000000   -0.00000915

     Total force =     0.024931     Total SCF correction =     0.000036


     Computing stress (Cartesian axis) and pressure

          total   stress  (Ry/bohr**3)                   (kbar)     P=      -79.41
  -0.00049647   0.00000000   0.00000000          -73.03        0.00        0.00
   0.00000000  -0.00052537   0.00000000            0.00      -77.28        0.00
   0.00000000   0.00000000  -0.00059771            0.00        0.00      -87.93

     kinetic stress (kbar)  15931.26      0.00      0.00
                                0.00  15914.16      0.00
                                0.00      0.00  15178.58

     local   stress (kbar)  -5308.52      0.00     -0.00
                                0.00  -5265.50     -0.00
                               -0.00     -0.00 -13698.70

     nonloc. stress (kbar)   5724.95      0.00      0.00
                                0.00   5722.94      0.00
                                0.00      0.00   5959.76

     hartree stress (kbar)   2015.16     -0.00      0.00
                               -0.00   1999.83      0.00
                                0.00      0.00   3502.42

     exc-cor stress (kbar)  -2141.19      0.00      0.00
                                0.00  -2141.19      0.00
                                0.00      0.00  -2141.19

     corecor stress (kbar)  -1656.87     -0.00      0.00
                               -0.00  -1656.73     -0.00
                                0.00     -0.00  -1684.05

     ewald   stress (kbar) -14637.83      0.00      0.00
                                0.00 -14650.79     -0.00
                                0.00     -0.00  -7204.74

     hubbard stress (kbar)      0.00      0.00      0.00
                                0.00      0.00      0.00
                                0.00      0.00      0.00

     DFT-D   stress (kbar)      0.00      0.00      0.00
                                0.00      0.00      0.00
                                0.00      0.00      0.00

     XDM     stress (kbar)      0.00      0.00      0.00
                                0.00      0.00      0.00
                                0.00      0.00      0.00

     dft-nl  stress (kbar)      0.00      0.00      0.00
                                0.00      0.00      0.00
                                0.00      0.00      0.00

     TS-vdW  stress (kbar)      0.00      0.00      0.00
                                0.00      0.00      0.00
                                0.00      0.00      0.00

     MDB     stress (kbar)      0.00      0.00      0.00
                                0.00      0.00      0.00
                                0.00      0.00      0.00

     3D-RISM stress (kbar)      0.00      0.00      0.00
                                0.00      0.00      0.00
                                0.00      0.00      0.00


     BFGS Geometry Optimization
     Energy error            =      2.6E-03 Ry
     Gradient error          =      1.7E-02 Ry/Bohr
     Cell gradient error     =      7.7E+01 kbar

     number of scf cycles    =   1
     number of bfgs steps    =   0

     enthalpy           new  =     -93.9150300398 Ry

     new trust radius        =       0.0443254786 bohr
     new conv_thr            =       0.0000000010 Ry

     new unit-cell volume =    280.99334 a.u.^3 (    41.63892 Ang^3 )
     density =      2.96823 g/cm^3

CELL_PARAMETERS (alat=  4.96997971)
   1.000000000   0.000000000   0.000000000
   0.000000000   0.986865774   0.000000000
   0.000000000   0.000000000   2.319391635

ATOMIC_POSITIONS (angstrom)
N                1.3150000000        1.2977284933        0.0056392633
B                1.3150000000        0.0000000000        0.8568894650
N                1.3150000000        0.0000000000        2.2105071763
N                0.0000000000        1.2977284933        3.8984432715
B                1.3150000000        1.2977284933        3.0556435129
B                0.0000000000        1.2977284933        5.2536773110



     Writing config-only to output data dir /home/amin/Desktop/QE/Sample-1.save/ :
     XML data file
     NEW-OLD atomic charge density approx. for the potential
     New effective cutoffs (rho, wfc):  266.03   66.68

     Check: negative core charge=   -0.000017

     total cpu time spent up to now is       69.4 secs

     per-process dynamical memory:    16.6 Mb

     Self-consistent Calculation

     iteration #  1     ecut=    65.00 Ry     beta= 0.70
     Davidson diagonalization with overlap

---- Real-time Memory Report at c_bands before calling an iterative solver
            44 MiB given to the printing process from OS
            16 MiB allocation reported by mallinfo(arena+hblkhd)
          6800 MiB available memory on the node where the printing process lives
------------------
     c_bands:  2 eigenvalues not converged
     c_bands:  1 eigenvalues not converged
     c_bands:  1 eigenvalues not converged
     c_bands:  1 eigenvalues not converged
     c_bands:  1 eigenvalues not converged
     c_bands:  1 eigenvalues not converged
     c_bands:  1 eigenvalues not converged
     c_bands:  1 eigenvalues not converged
     c_bands:  1 eigenvalues not converged
     c_bands:  1 eigenvalues not converged
     c_bands:  1 eigenvalues not converged
     c_bands:  1 eigenvalues not converged
     c_bands:  1 eigenvalues not converged
     c_bands:  1 eigenvalues not converged
     ethr =  1.00E-06,  avg # of iterations = 15.2

     total cpu time spent up to now is       81.5 secs

     total energy              =     -93.91555671 Ry
     estimated scf accuracy    <       0.00115637 Ry

     iteration #  2     ecut=    65.00 Ry     beta= 0.70
     Davidson diagonalization with overlap

---- Real-time Memory Report at c_bands before calling an iterative solver
            44 MiB given to the printing process from OS
            16 MiB allocation reported by mallinfo(arena+hblkhd)
          6795 MiB available memory on the node where the printing process lives
------------------
     c_bands:  1 eigenvalues not converged
     ethr =  4.82E-06,  avg # of iterations =  8.2

     total cpu time spent up to now is       85.3 secs

     total energy              =     -93.91511212 Ry
     estimated scf accuracy    <       0.00753105 Ry

     iteration #  3     ecut=    65.00 Ry     beta= 0.70
     Davidson diagonalization with overlap

---- Real-time Memory Report at c_bands before calling an iterative solver
            44 MiB given to the printing process from OS
            16 MiB allocation reported by mallinfo(arena+hblkhd)
          6803 MiB available memory on the node where the printing process lives
------------------
     ethr =  4.82E-06,  avg # of iterations =  4.4

     total cpu time spent up to now is       88.0 secs

     total energy              =     -93.91616213 Ry
     estimated scf accuracy    <       0.00005381 Ry

     iteration #  4     ecut=    65.00 Ry     beta= 0.70
     Davidson diagonalization with overlap

---- Real-time Memory Report at c_bands before calling an iterative solver
            44 MiB given to the printing process from OS
            16 MiB allocation reported by mallinfo(arena+hblkhd)
          6800 MiB available memory on the node where the printing process lives
------------------
     ethr =  2.24E-07,  avg # of iterations =  5.7

     total cpu time spent up to now is       91.6 secs

     total energy              =     -93.91620429 Ry
     estimated scf accuracy    <       0.00001961 Ry

     iteration #  5     ecut=    65.00 Ry     beta= 0.70
     Davidson diagonalization with overlap

---- Real-time Memory Report at c_bands before calling an iterative solver
            44 MiB given to the printing process from OS
            16 MiB allocation reported by mallinfo(arena+hblkhd)
          6832 MiB available memory on the node where the printing process lives
------------------
     ethr =  8.17E-08,  avg # of iterations =  2.0

     total cpu time spent up to now is       93.7 secs

     total energy              =     -93.91620655 Ry
     estimated scf accuracy    <       0.00001559 Ry

     iteration #  6     ecut=    65.00 Ry     beta= 0.70
     Davidson diagonalization with overlap

---- Real-time Memory Report at c_bands before calling an iterative solver
            44 MiB given to the printing process from OS
            16 MiB allocation reported by mallinfo(arena+hblkhd)
          6832 MiB available memory on the node where the printing process lives
------------------
     ethr =  6.50E-08,  avg # of iterations =  1.0

     total cpu time spent up to now is       95.3 secs

     total energy              =     -93.91620868 Ry
     estimated scf accuracy    <       0.00000090 Ry

     iteration #  7     ecut=    65.00 Ry     beta= 0.70
     Davidson diagonalization with overlap

---- Real-time Memory Report at c_bands before calling an iterative solver
            44 MiB given to the printing process from OS
            16 MiB allocation reported by mallinfo(arena+hblkhd)
          6832 MiB available memory on the node where the printing process lives
------------------
     ethr =  3.75E-09,  avg # of iterations =  4.4

     total cpu time spent up to now is       98.4 secs

     total energy              =     -93.91620914 Ry
     estimated scf accuracy    <       0.00000003 Ry

     iteration #  8     ecut=    65.00 Ry     beta= 0.70
     Davidson diagonalization with overlap

---- Real-time Memory Report at c_bands before calling an iterative solver
            44 MiB given to the printing process from OS
            16 MiB allocation reported by mallinfo(arena+hblkhd)
          6829 MiB available memory on the node where the printing process lives
------------------
     ethr =  1.14E-10,  avg # of iterations =  6.7

     total cpu time spent up to now is      102.9 secs

     total energy              =     -93.91620919 Ry
     estimated scf accuracy    <       0.00000002 Ry

     iteration #  9     ecut=    65.00 Ry     beta= 0.70
     Davidson diagonalization with overlap

---- Real-time Memory Report at c_bands before calling an iterative solver
            44 MiB given to the printing process from OS
            16 MiB allocation reported by mallinfo(arena+hblkhd)
          6831 MiB available memory on the node where the printing process lives
------------------
     ethr =  6.84E-11,  avg # of iterations =  1.6

     total cpu time spent up to now is      104.8 secs

     total energy              =     -93.91620919 Ry
     estimated scf accuracy    <          2.3E-09 Ry

     iteration # 10     ecut=    65.00 Ry     beta= 0.70
     Davidson diagonalization with overlap

---- Real-time Memory Report at c_bands before calling an iterative solver
            44 MiB given to the printing process from OS
            16 MiB allocation reported by mallinfo(arena+hblkhd)
          6830 MiB available memory on the node where the printing process lives
------------------
     ethr =  9.75E-12,  avg # of iterations =  4.4

     total cpu time spent up to now is      110.9 secs

     End of self-consistent calculation

          k = 0.0625 0.0633 0.0269 (  2517 PWs)   bands (ev):

   -10.8223  -8.6307  -6.9455   0.6855   1.7876   3.0370   3.2281   5.4807
     5.6557   6.6019   8.8571   9.0383  12.9204  15.0523  16.0200  16.5013

     occupation numbers 
     1.0000   1.0000   1.0000   1.0000   1.0000   1.0000   1.0000   1.0000
     1.0000   1.0000   0.9999   0.9963   0.0000   0.0000   0.0000   0.0000

          k = 0.0625 0.0633 0.0808 (  2521 PWs)   bands (ev):

   -10.7809  -8.8316  -6.6942   0.0048   2.5337   3.0771   3.2768   5.3266
     5.5603   6.4517   9.0185   9.1799  12.9129  15.0593  15.8529  16.2626

     occupation numbers 
     1.0000   1.0000   1.0000   1.0000   1.0000   1.0000   1.0000   1.0000
     1.0000   1.0000   0.9973   0.9739   0.0000   0.0000   0.0000   0.0000

          k = 0.0625 0.0633 0.1347 (  2524 PWs)   bands (ev):

   -10.7145  -9.0724  -6.3780  -0.5837   3.0299   3.2044   3.5417   5.0848
     5.4359   6.1671   9.2532   9.3860  12.8922  15.0687  15.5223  16.0409

     occupation numbers 
     1.0000   1.0000   1.0000   1.0000   1.0000   1.0000   1.0000   1.0000
     1.0000   1.0000   0.9408   0.8081   0.0000   0.0000   0.0000   0.0000

          k = 0.0625 0.0633 0.1886 (  2515 PWs)   bands (ev):

   -10.6601  -9.2290  -6.1652  -0.9259   3.1006   3.2782   4.1410   4.7819
     5.3600   5.8915   9.4272   9.5350  12.8681  15.0776  15.2717  15.7835

     occupation numbers 
     1.0000   1.0000   1.0000   1.0000   1.0000   1.0000   1.0000   1.0000
     1.0000   1.0000   0.7443   0.5385   0.0000   0.0000   0.0000   0.0000

          k = 0.0625 0.1900 0.0269 (  2530 PWs)   bands (ev):

   -10.4061  -8.2364  -6.6615   0.6567   1.3307   1.8651   3.3182   4.3320
     5.6813   6.0297   7.8157   9.0102  13.5836  15.0633  16.2942  16.6674

     occupation numbers 
     1.0000   1.0000   1.0000   1.0000   1.0000   1.0000   1.0000   1.0000
     1.0000   1.0000   1.0000   0.9976   0.0000   0.0000   0.0000   0.0000

          k = 0.0625 0.1900 0.0808 (  2532 PWs)   bands (ev):

   -10.3673  -8.4272  -6.4325   0.1700   1.3557   2.3647   3.3453   4.1590
     5.6203   6.0781   7.8775   9.1363  13.4409  14.9724  16.2463  16.4839

     occupation numbers 
     1.0000   1.0000   1.0000   1.0000   1.0000   1.0000   1.0000   1.0000
     1.0000   1.0000   1.0000   0.9849   0.0000   0.0000   0.0000   0.0000

          k = 0.0625 0.1900 0.1347 (  2530 PWs)   bands (ev):

   -10.3058  -8.6554  -6.1489  -0.3015   1.4120   2.8022   3.3819   4.0209
     5.5121   6.0475   8.0197   9.3171  13.2226  14.8460  16.0369  16.4131

     occupation numbers 
     1.0000   1.0000   1.0000   1.0000   1.0000   1.0000   1.0000   1.0000
     1.0000   1.0000   1.0000   0.8904   0.0000   0.0000   0.0000   0.0000

          k = 0.0625 0.1900 0.1886 (  2539 PWs)   bands (ev):

   -10.2558  -8.8031  -5.9617  -0.5810   1.4576   2.9938   3.3984   4.0392
     5.4366   5.9467   8.1566   9.4466  13.0555  14.7544  15.8725  16.4020

     occupation numbers 
     1.0000   1.0000   1.0000   1.0000   1.0000   1.0000   1.0000   1.0000
     1.0000   1.0000   1.0000   0.7109   0.0000   0.0000   0.0000   0.0000

          k = 0.0625 0.3167 0.0269 (  2518 PWs)   bands (ev):

    -9.6647  -7.5348  -6.2827  -0.8071   0.3985   1.3425   3.5683   3.7548
     4.9520   6.1563   6.7543   9.1275  12.6929  15.1584  16.5793  17.5491

     occupation numbers 
     1.0000   1.0000   1.0000   1.0000   1.0000   1.0000   1.0000   1.0000
     1.0000   1.0000   1.0000   0.9866   0.0000   0.0000   0.0000   0.0000

          k = 0.0625 0.3167 0.0808 (  2522 PWs)   bands (ev):

    -9.6335  -7.6964  -6.1139  -0.7694   0.2321   1.4802   3.2476   3.7488
     5.3938   6.0916   6.6435   9.2000  12.6580  15.1324  16.4927  17.5601

     occupation numbers 
     1.0000   1.0000   1.0000   1.0000   1.0000   1.0000   1.0000   1.0000
     1.0000   1.0000   1.0000   0.9669   0.0000   0.0000   0.0000   0.0000

          k = 0.0625 0.3167 0.1347 (  2527 PWs)   bands (ev):

    -9.5850  -7.8883  -5.9142  -0.7434   0.1371   1.4499   3.0920   3.7672
     5.7350   6.0242   6.5429   9.3016  12.5942  15.0828  16.3971  17.6220

     occupation numbers 
     1.0000   1.0000   1.0000   1.0000   1.0000   1.0000   1.0000   1.0000
     1.0000   1.0000   1.0000   0.9049   0.0000   0.0000   0.0000   0.0000

          k = 0.0625 0.3167 0.1886 (  2528 PWs)   bands (ev):

    -9.5469  -8.0109  -5.7886  -0.7549   0.1688   1.2805   3.1327   3.7819
     5.7572   6.0215   6.5797   9.3727  12.5388  15.0395  16.3432  17.6898

     occupation numbers 
     1.0000   1.0000   1.0000   1.0000   1.0000   1.0000   1.0000   1.0000
     1.0000   1.0000   1.0000   0.8264   0.0000   0.0000   0.0000   0.0000

          k = 0.0625 0.4433 0.0269 (  2530 PWs)   bands (ev):

    -8.9248  -6.7670  -6.2530  -1.9609  -0.7120   1.0740   3.4472   4.0771
     4.7102   5.9666   6.4674   9.1796  11.7602  15.4181  16.8568  17.8542

     occupation numbers 
     1.0000   1.0000   1.0000   1.0000   1.0000   1.0000   1.0000   1.0000
     1.0000   1.0000   1.0000   0.9740   0.0000   0.0000   0.0000   0.0000

          k = 0.0625 0.4433 0.0808 (  2531 PWs)   bands (ev):

    -8.9088  -6.8519  -6.1968  -1.9997  -0.5537   1.2115   2.8152   4.0741
     5.2608   5.7685   6.4499   9.1905  11.9102  15.3929  16.8760  17.8702

     occupation numbers 
     1.0000   1.0000   1.0000   1.0000   1.0000   1.0000   1.0000   1.0000
     1.0000   1.0000   1.0000   0.9704   0.0000   0.0000   0.0000   0.0000

          k = 0.0625 0.4433 0.1347 (  2525 PWs)   bands (ev):

    -8.8852  -6.9539  -6.1359  -2.0612  -0.2329   1.3206   2.2137   4.0805
     5.4804   5.7526   6.4227   9.2062  12.1136  15.3593  16.8983  17.9035

     occupation numbers 
     1.0000   1.0000   1.0000   1.0000   1.0000   1.0000   1.0000   1.0000
     1.0000   1.0000   1.0000   0.9645   0.0000   0.0000   0.0000   0.0000

          k = 0.0625 0.4433 0.1886 (  2520 PWs)   bands (ev):

    -8.8678  -7.0188  -6.1002  -2.1069   0.1639   1.0915   2.0129   4.0858
     5.2690   6.0325   6.3988   9.2173  12.2521  15.3368  16.9103  17.9864

     occupation numbers 
     1.0000   1.0000   1.0000   1.0000   1.0000   1.0000   1.0000   1.0000
     1.0000   1.0000   1.0000   0.9597   0.0000   0.0000   0.0000   0.0000

          k = 0.1875 0.1900 0.0269 (  2519 PWs)   bands (ev):

   -10.0160  -7.8682  -6.4072   0.7361   1.2069   1.8170   2.1237   4.2495
     4.6817   5.6424   7.4664   8.1927  13.6231  14.5289  17.2645  17.5482

     occupation numbers 
     1.0000   1.0000   1.0000   1.0000   1.0000   1.0000   1.0000   1.0000
     1.0000   1.0000   1.0000   1.0000   0.0000   0.0000   0.0000   0.0000

          k = 0.1875 0.1900 0.0808 (  2515 PWs)   bands (ev):

    -9.9799  -8.0487  -6.1995   0.3402   1.3663   1.8007   2.4357   3.9275
     4.7412   5.7205   7.6148   8.2322  13.5031  14.3203  17.2806  17.8180

     occupation numbers 
     1.0000   1.0000   1.0000   1.0000   1.0000   1.0000   1.0000   1.0000
     1.0000   1.0000   1.0000   1.0000   0.0000   0.0000   0.0000   0.0000

          k = 0.1875 0.1900 0.1347 (  2519 PWs)   bands (ev):

    -9.9232  -8.2639  -5.9462  -0.0373   1.4605   1.8500   2.7660   3.5783
     4.7576   5.7677   7.8164   8.3145  13.3020  14.0855  17.2754  17.9756

     occupation numbers 
     1.0000   1.0000   1.0000   1.0000   1.0000   1.0000   1.0000   1.0000
     1.0000   1.0000   1.0000   1.0000   0.0000   0.0000   0.0000   0.0000

          k = 0.1875 0.1900 0.1886 (  2515 PWs)   bands (ev):

    -9.8777  -8.4025  -5.7817  -0.2622   1.5060   1.9068   3.0117   3.2966
     4.7928   5.7439   7.9702   8.3800  13.1420  13.9472  17.2633  18.0323

     occupation numbers 
     1.0000   1.0000   1.0000   1.0000   1.0000   1.0000   1.0000   1.0000
     1.0000   1.0000   1.0000   1.0000   0.0000   0.0000   0.0000   0.0000

          k = 0.1875 0.3167 0.0269 (  2514 PWs)   bands (ev):

    -9.2947  -7.1888  -6.0343  -0.4485   0.6252   1.4579   2.2976   3.4776
     4.5430   5.2365   6.4835   7.9831  12.2715  14.1242  16.7085  18.2348

     occupation numbers 
     1.0000   1.0000   1.0000   1.0000   1.0000   1.0000   1.0000   1.0000
     1.0000   1.0000   1.0000   1.0000   0.0000   0.0000   0.0000   0.0000

          k = 0.1875 0.3167 0.0808 (  2517 PWs)   bands (ev):

    -9.2660  -7.3401  -5.8811  -0.4116   0.4973   1.5624   2.3273   3.1678
     4.7515   5.2543   6.5000   8.0125  12.2979  13.9743  16.9510  18.2630

     occupation numbers 
     1.0000   1.0000   1.0000   1.0000   1.0000   1.0000   1.0000   1.0000
     1.0000   1.0000   1.0000   1.0000   0.0000   0.0000   0.0000   0.0000

          k = 0.1875 0.3167 0.1347 (  2520 PWs)   bands (ev):

    -9.2218  -7.5194  -5.7018  -0.3801   0.4222   1.5718   2.3383   2.9713
     4.7707   5.3974   6.5145   8.0684  12.3185  13.7923  17.3656  18.3150

     occupation numbers 
     1.0000   1.0000   1.0000   1.0000   1.0000   1.0000   1.0000   1.0000
     1.0000   1.0000   1.0000   1.0000   0.0000   0.0000   0.0000   0.0000

          k = 0.1875 0.3167 0.1886 (  2531 PWs)   bands (ev):

    -9.1875  -7.6335  -5.5899  -0.3812   0.4460   1.4723   2.3290   2.9498
     4.7332   5.4845   6.5390   8.1141  12.3194  13.6828  17.8104  18.3820

     occupation numbers 
     1.0000   1.0000   1.0000   1.0000   1.0000   1.0000   1.0000   1.0000
     1.0000   1.0000   1.0000   1.0000   0.0000   0.0000   0.0000   0.0000

          k = 0.1875 0.4433 0.0269 (  2527 PWs)   bands (ev):

    -8.5829  -6.4540  -5.9836  -1.5574  -0.3825   1.4158   2.6086   3.2947
     4.3996   5.4408   5.7596   7.8918  11.2438  13.7930  16.4571  19.0138

     occupation numbers 
     1.0000   1.0000   1.0000   1.0000   1.0000   1.0000   1.0000   1.0000
     1.0000   1.0000   1.0000   1.0000   0.0000   0.0000   0.0000   0.0000

          k = 0.1875 0.4433 0.0808 (  2523 PWs)   bands (ev):

    -8.5685  -6.5315  -5.9323  -1.5895  -0.2368   1.5242   2.5374   2.8863
     4.7475   5.4067   5.6687   7.8612  11.4137  13.6895  16.7217  18.9948

     occupation numbers 
     1.0000   1.0000   1.0000   1.0000   1.0000   1.0000   1.0000   1.0000
     1.0000   1.0000   1.0000   1.0000   0.0000   0.0000   0.0000   0.0000

          k = 0.1875 0.4433 0.1347 (  2520 PWs)   bands (ev):

    -8.5474  -6.6244  -5.8768  -1.6406   0.0533   1.5690   2.2425   2.7385
     4.9796   5.3506   5.6009   7.8305  11.6538  13.5407  17.2164  18.9474

     occupation numbers 
     1.0000   1.0000   1.0000   1.0000   1.0000   1.0000   1.0000   1.0000
     1.0000   1.0000   1.0000   1.0000   0.0000   0.0000   0.0000   0.0000

          k = 0.1875 0.4433 0.1886 (  2512 PWs)   bands (ev):

    -8.5319  -6.6834  -5.8444  -1.6789   0.4042   1.2971   2.1649   2.7269
     5.0081   5.2912   5.6444   7.8155  11.8279  13.4300  17.8556  18.7249

     occupation numbers 
     1.0000   1.0000   1.0000   1.0000   1.0000   1.0000   1.0000   1.0000
     1.0000   1.0000   1.0000   1.0000   0.0000   0.0000   0.0000   0.0000

          k = 0.3125 0.3167 0.0269 (  2516 PWs)   bands (ev):

    -8.6500  -6.5899  -5.6954  -0.0778   0.5739   0.8566   1.6769   2.9112
     3.8773   4.9412   5.7522   7.1130  10.8029  13.8105  15.9270  18.8156

     occupation numbers 
     1.0000   1.0000   1.0000   1.0000   1.0000   1.0000   1.0000   1.0000
     1.0000   1.0000   1.0000   1.0000   0.0000   0.0000   0.0000   0.0000

          k = 0.3125 0.3167 0.0808 (  2516 PWs)   bands (ev):

    -8.6280  -6.7127  -5.5821  -0.0366   0.6064   0.7805   1.7366   2.7057
     4.0704   4.7818   5.9146   6.9994  10.9648  13.5826  16.2090  18.5744

     occupation numbers 
     1.0000   1.0000   1.0000   1.0000   1.0000   1.0000   1.0000   1.0000
     1.0000   1.0000   1.0000   1.0000   0.0000   0.0000   0.0000   0.0000

          k = 0.3125 0.3167 0.1347 (  2517 PWs)   bands (ev):

    -8.5948  -6.8577  -5.4526   0.0398   0.5042   0.8527   1.7696   2.4823
     4.1874   4.7379   6.0484   6.8544  11.2041  13.2564  16.7298  18.3645

     occupation numbers 
     1.0000   1.0000   1.0000   1.0000   1.0000   1.0000   1.0000   1.0000
     1.0000   1.0000   1.0000   1.0000   0.0000   0.0000   0.0000   0.0000

          k = 0.3125 0.3167 0.1886 (  2511 PWs)   bands (ev):

    -8.5696  -6.9491  -5.3737   0.1290   0.3732   0.9602   1.7689   2.3293
     4.1951   4.8012   6.1030   6.7654  11.3923  13.0098  17.3831  18.1211

     occupation numbers 
     1.0000   1.0000   1.0000   1.0000   1.0000   1.0000   1.0000   1.0000
     1.0000   1.0000   1.0000   1.0000   0.0000   0.0000   0.0000   0.0000

          k = 0.3125 0.4433 0.0269 (  2513 PWs)   bands (ev):

    -7.9958  -5.9353  -5.5736  -0.8618   0.1816   0.9997   1.8719   2.4370
     3.6826   4.9051   5.0707   6.7449   9.5777  13.8025  15.8461  17.7950

     occupation numbers 
     1.0000   1.0000   1.0000   1.0000   1.0000   1.0000   1.0000   1.0000
     1.0000   1.0000   1.0000   1.0000   0.4501   0.0000   0.0000   0.0000

          k = 0.3125 0.4433 0.0808 (  2510 PWs)   bands (ev):

    -7.9853  -5.9936  -5.5340  -0.8805   0.2409   1.0270   1.8814   2.3802
     3.7760   4.7854   5.1109   6.5385   9.8875  13.5173  16.1287  17.6908

     occupation numbers 
     1.0000   1.0000   1.0000   1.0000   1.0000   1.0000   1.0000   1.0000
     1.0000   1.0000   1.0000   1.0000   0.0413   0.0000   0.0000   0.0000

          k = 0.3125 0.4433 0.1347 (  2505 PWs)   bands (ev):

    -7.9701  -6.0632  -5.4911  -0.9094   0.3413   1.0611   1.8430   2.3692
     3.8654   4.6938   5.1088   6.2838  10.3351  13.0949  16.5871  17.5175

     occupation numbers 
     1.0000   1.0000   1.0000   1.0000   1.0000   1.0000   1.0000   1.0000
     1.0000   1.0000   1.0000   1.0000   0.0000   0.0000   0.0000   0.0000

          k = 0.3125 0.4433 0.1886 (  2515 PWs)   bands (ev):

    -7.9591  -6.1073  -5.4660  -0.9310   0.4280   1.0744   1.7940   2.3925
     3.8988   4.6705   5.0834   6.1224  10.6961  12.7491  16.9696  17.3993

     occupation numbers 
     1.0000   1.0000   1.0000   1.0000   1.0000   1.0000   1.0000   1.0000
     1.0000   1.0000   1.0000   1.0000   0.0000   0.0000   0.0000   0.0000

          k = 0.4375 0.4433 0.0269 (  2506 PWs)   bands (ev):

    -7.4526  -5.4604  -5.3150  -0.2388  -0.0007   0.7391   1.1557   2.7450
     3.0328   3.9283   5.0175   6.2188   8.3195  14.1952  16.0066  16.7173

     occupation numbers 
     1.0000   1.0000   1.0000   1.0000   1.0000   1.0000   1.0000   1.0000
     1.0000   1.0000   1.0000   1.0000   1.0000   0.0000   0.0000   0.0000

          k = 0.4375 0.4433 0.0808 (  2499 PWs)   bands (ev):

    -7.4482  -5.4828  -5.2981  -0.2513  -0.0324   0.4779   1.5704   2.7663
     3.1149   3.9898   4.7972   5.8311   8.8256  13.7856  16.0876  16.4584

     occupation numbers 
     1.0000   1.0000   1.0000   1.0000   1.0000   1.0000   1.0000   1.0000
     1.0000   1.0000   1.0000   1.0000   0.9999   0.0000   0.0000   0.0000

          k = 0.4375 0.4433 0.1347 (  2490 PWs)   bands (ev):

    -7.4419  -5.5092  -5.2795  -0.2608  -0.0873   0.2997   2.0198   2.7723
     3.2746   4.0921   4.4476   5.3591   9.4966  13.1725  16.0657  16.1829

     occupation numbers 
     1.0000   1.0000   1.0000   1.0000   1.0000   1.0000   1.0000   1.0000
     1.0000   1.0000   1.0000   1.0000   0.6163   0.0000   0.0000   0.0000

          k = 0.4375 0.4433 0.1886 (  2499 PWs)   bands (ev):

    -7.4374  -5.5257  -5.2685  -0.2554  -0.1406   0.2147   2.3945   2.7091
     3.5292   3.8951   4.3924   4.9782  10.0358  12.6517  15.9602  16.0462

     occupation numbers 
     1.0000   1.0000   1.0000   1.0000   1.0000   1.0000   1.0000   1.0000
     1.0000   1.0000   1.0000   1.0000   0.0061   0.0000   0.0000   0.0000

          k = 0.1875 0.0633-0.0269 (  2530 PWs)   bands (ev):

   -10.4230  -8.2525  -6.6842   0.5904   1.2917   1.7840   3.4642   4.2637
     5.7632   6.0528   7.8172   9.1147  13.7784  14.9917  16.4249  16.8410

     occupation numbers 
     1.0000   1.0000   1.0000   1.0000   1.0000   1.0000   1.0000   1.0000
     1.0000   1.0000   1.0000   0.9887   0.0000   0.0000   0.0000   0.0000

          k = 0.1875 0.0633-0.0808 (  2532 PWs)   bands (ev):

   -10.3843  -8.4433  -6.4559   0.1370   1.2564   2.3053   3.4871   4.0935
     5.7399   6.0843   7.8677   9.2338  13.6134  14.9209  16.4209  16.6376

     occupation numbers 
     1.0000   1.0000   1.0000   1.0000   1.0000   1.0000   1.0000   1.0000
     1.0000   1.0000   1.0000   0.9517   0.0000   0.0000   0.0000   0.0000

          k = 0.1875 0.0633-0.1347 (  2530 PWs)   bands (ev):

   -10.3229  -8.6712  -6.1734  -0.3240   1.3032   2.7215   3.5142   3.9823
     5.6406   6.0629   8.0006   9.4034  13.3636  14.8227  16.2816  16.5286

     occupation numbers 
     1.0000   1.0000   1.0000   1.0000   1.0000   1.0000   1.0000   1.0000
     1.0000   1.0000   1.0000   0.7825   0.0000   0.0000   0.0000   0.0000

          k = 0.1875 0.0633-0.1886 (  2539 PWs)   bands (ev):

   -10.2731  -8.8186  -5.9871  -0.5996   1.3488   2.8797   3.5274   4.0359
     5.5564   5.9745   8.1359   9.5241  13.1751  14.7510  16.1311  16.5253

     occupation numbers 
     1.0000   1.0000   1.0000   1.0000   1.0000   1.0000   1.0000   1.0000
     1.0000   1.0000   1.0000   0.5610   0.0000   0.0000   0.0000   0.0000

          k = 0.3125 0.0633-0.0269 (  2518 PWs)   bands (ev):

    -9.7157  -7.5820  -6.3481  -0.8603   0.3030   1.3305   3.5713   3.8572
     4.9312   6.2714   6.8299   9.2111  12.7800  15.2572  16.8335  17.7541

     occupation numbers 
     1.0000   1.0000   1.0000   1.0000   1.0000   1.0000   1.0000   1.0000
     1.0000   1.0000   1.0000   0.9625   0.0000   0.0000   0.0000   0.0000

          k = 0.3125 0.0633-0.0808 (  2522 PWs)   bands (ev):

    -9.6847  -7.7432  -6.1806  -0.8264   0.1585   1.4574   3.2252   3.8563
     5.3903   6.2092   6.7107   9.2787  12.7588  15.2249  16.7606  17.7549

     occupation numbers 
     1.0000   1.0000   1.0000   1.0000   1.0000   1.0000   1.0000   1.0000
     1.0000   1.0000   1.0000   0.9234   0.0000   0.0000   0.0000   0.0000

          k = 0.3125 0.0633-0.1347 (  2527 PWs)   bands (ev):

    -9.6367  -7.9342  -5.9832  -0.8108   0.0947   1.4119   3.0611   3.8731
     5.7497   6.1381   6.5993   9.3732  12.7113  15.1710  16.6795  17.8261

     occupation numbers 
     1.0000   1.0000   1.0000   1.0000   1.0000   1.0000   1.0000   1.0000
     1.0000   1.0000   1.0000   0.8258   0.0000   0.0000   0.0000   0.0000

          k = 0.3125 0.0633-0.1886 (  2528 PWs)   bands (ev):

    -9.5991  -8.0561  -5.8592  -0.8311   0.1567   1.2209   3.1031   3.8866
     5.7926   6.1247   6.6263   9.4391  12.6652  15.1272  16.6336  17.9252

     occupation numbers 
     1.0000   1.0000   1.0000   1.0000   1.0000   1.0000   1.0000   1.0000
     1.0000   1.0000   1.0000   0.7241   0.0000   0.0000   0.0000   0.0000

          k = 0.4375 0.0633-0.0269 (  2530 PWs)   bands (ev):

    -9.0184  -6.8499  -6.3492  -1.9593  -0.7693   1.0651   3.4445   4.1512
     4.6930   6.0849   6.5563   9.2501  11.8553  15.4740  17.2043  17.9347

     occupation numbers 
     1.0000   1.0000   1.0000   1.0000   1.0000   1.0000   1.0000   1.0000
     1.0000   1.0000   1.0000   0.9426   0.0000   0.0000   0.0000   0.0000

          k = 0.4375 0.0633-0.0808 (  2531 PWs)   bands (ev):

    -9.0026  -6.9343  -6.2937  -2.0008  -0.6068   1.2063   2.7927   4.1482
     5.2631   5.8751   6.5401   9.2616  12.0236  15.4488  17.2239  17.9337

     occupation numbers 
     1.0000   1.0000   1.0000   1.0000   1.0000   1.0000   1.0000   1.0000
     1.0000   1.0000   1.0000   0.9354   0.0000   0.0000   0.0000   0.0000

          k = 0.4375 0.0633-0.1347 (  2525 PWs)   bands (ev):

    -8.9793  -7.0354  -6.2337  -2.0658  -0.2781   1.3170   2.1802   4.1542
     5.5730   5.7668   6.5147   9.2776  12.2529  15.4140  17.2430  17.9500

     occupation numbers 
     1.0000   1.0000   1.0000   1.0000   1.0000   1.0000   1.0000   1.0000
     1.0000   1.0000   1.0000   0.9242   0.0000   0.0000   0.0000   0.0000

          k = 0.4375 0.0633-0.1886 (  2520 PWs)   bands (ev):

    -8.9621  -7.0998  -6.1987  -2.1137   0.1301   1.0667   1.9905   4.1591
     5.3513   6.0532   6.4931   9.2888  12.4100  15.3898  17.2497  18.0323

     occupation numbers 
     1.0000   1.0000   1.0000   1.0000   1.0000   1.0000   1.0000   1.0000
     1.0000   1.0000   1.0000   0.9156   0.0000   0.0000   0.0000   0.0000

          k = 0.3125 0.1900-0.0269 (  2514 PWs)   bands (ev):

    -9.3285  -7.2195  -6.0767  -0.4791   0.5526   1.4808   2.3386   3.5073
     4.5491   5.2523   6.5749   7.9750  12.3895  14.0428  16.7404  18.5720

     occupation numbers 
     1.0000   1.0000   1.0000   1.0000   1.0000   1.0000   1.0000   1.0000
     1.0000   1.0000   1.0000   1.0000   0.0000   0.0000   0.0000   0.0000

          k = 0.3125 0.1900-0.0808 (  2517 PWs)   bands (ev):

    -9.3001  -7.3705  -5.9244  -0.4455   0.4436   1.5767   2.3629   3.1840
     4.7775   5.2718   6.5800   8.0049  12.4173  13.9041  16.9823  18.5998

     occupation numbers 
     1.0000   1.0000   1.0000   1.0000   1.0000   1.0000   1.0000   1.0000
     1.0000   1.0000   1.0000   1.0000   0.0000   0.0000   0.0000   0.0000

          k = 0.3125 0.1900-0.1347 (  2520 PWs)   bands (ev):

    -9.2562  -7.5492  -5.7464  -0.4242   0.3977   1.5666   2.3690   2.9897
     4.8060   5.4177   6.5824   8.0615  12.4392  13.7359  17.4013  18.6486

     occupation numbers 
     1.0000   1.0000   1.0000   1.0000   1.0000   1.0000   1.0000   1.0000
     1.0000   1.0000   1.0000   1.0000   0.0000   0.0000   0.0000   0.0000

          k = 0.3125 0.1900-0.1886 (  2531 PWs)   bands (ev):

    -9.2222  -7.6628  -5.6356  -0.4346   0.4514   1.4396   2.3606   2.9767
     4.7693   5.5063   6.6007   8.1073  12.4401  13.6357  17.8700  18.6539

     occupation numbers 
     1.0000   1.0000   1.0000   1.0000   1.0000   1.0000   1.0000   1.0000
     1.0000   1.0000   1.0000   1.0000   0.0000   0.0000   0.0000   0.0000

          k = 0.4375 0.1900-0.0269 (  2527 PWs)   bands (ev):

    -8.6588  -6.5187  -6.0584  -1.5350  -0.4231   1.4267   2.6184   3.3247
     4.3956   5.4514   5.8977   7.8773  11.4160  13.7042  16.4963  19.3381

     occupation numbers 
     1.0000   1.0000   1.0000   1.0000   1.0000   1.0000   1.0000   1.0000
     1.0000   1.0000   1.0000   1.0000   0.0000   0.0000   0.0000   0.0000

          k = 0.4375 0.1900-0.0808 (  2523 PWs)   bands (ev):

    -8.6445  -6.5958  -6.0077  -1.5694  -0.2723   1.5387   2.5393   2.8982
     4.7653   5.4342   5.7835   7.8538  11.5841  13.6140  16.7579  19.2881

     occupation numbers 
     1.0000   1.0000   1.0000   1.0000   1.0000   1.0000   1.0000   1.0000
     1.0000   1.0000   1.0000   1.0000   0.0000   0.0000   0.0000   0.0000

          k = 0.4375 0.1900-0.1347 (  2520 PWs)   bands (ev):

    -8.6235  -6.6882  -5.9531  -1.6240   0.0284   1.5798   2.2313   2.7504
     5.0105   5.4197   5.6651   7.8318  11.8213  13.4841  17.2457  19.1928

     occupation numbers 
     1.0000   1.0000   1.0000   1.0000   1.0000   1.0000   1.0000   1.0000
     1.0000   1.0000   1.0000   1.0000   0.0000   0.0000   0.0000   0.0000

          k = 0.4375 0.1900-0.1886 (  2512 PWs)   bands (ev):

    -8.6081  -6.7469  -5.9212  -1.6645   0.3977   1.2760   2.1666   2.7381
     5.0533   5.3672   5.6877   7.8220  11.9932  13.3869  17.8624  18.8236

     occupation numbers 
     1.0000   1.0000   1.0000   1.0000   1.0000   1.0000   1.0000   1.0000
     1.0000   1.0000   1.0000   1.0000   0.0000   0.0000   0.0000   0.0000

          k = 0.4375 0.3167-0.0269 (  2513 PWs)   bands (ev):

    -8.0366  -5.9667  -5.6093  -0.7995   0.1754   0.9389   1.9068   2.4526
     3.6557   4.9578   5.0931   6.7178   9.6579  13.7538  15.8304  17.8942

     occupation numbers 
     1.0000   1.0000   1.0000   1.0000   1.0000   1.0000   1.0000   1.0000
     1.0000   1.0000   1.0000   1.0000   0.2939   0.0000   0.0000   0.0000

          k = 0.4375 0.3167-0.0808 (  2510 PWs)   bands (ev):

    -8.0261  -6.0249  -5.5701  -0.8195   0.2399   0.9702   1.9044   2.3940
     3.7464   4.8227   5.1644   6.5127   9.9557  13.4813  16.1120  17.7890

     occupation numbers 
     1.0000   1.0000   1.0000   1.0000   1.0000   1.0000   1.0000   1.0000
     1.0000   1.0000   1.0000   1.0000   0.0183   0.0000   0.0000   0.0000

          k = 0.4375 0.3167-0.1347 (  2505 PWs)   bands (ev):

    -8.0109  -6.0945  -5.5277  -0.8506   0.3483   1.0187   1.8278   2.3943
     3.8291   4.7322   5.1871   6.2537  10.3876  13.0770  16.5681  17.6163

     occupation numbers 
     1.0000   1.0000   1.0000   1.0000   1.0000   1.0000   1.0000   1.0000
     1.0000   1.0000   1.0000   1.0000   0.0000   0.0000   0.0000   0.0000

          k = 0.4375 0.3167-0.1886 (  2515 PWs)   bands (ev):

    -7.9998  -6.1386  -5.5030  -0.8738   0.4401   1.0551   1.7362   2.4291
     3.8581   4.7106   5.1799   6.0857  10.7352  12.7469  16.9440  17.5093

     occupation numbers 
     1.0000   1.0000   1.0000   1.0000   1.0000   1.0000   1.0000   1.0000
     1.0000   1.0000   1.0000   1.0000   0.0000   0.0000   0.0000   0.0000

     the Fermi energy is     9.5536 ev

!    total energy              =     -93.91620919 Ry
     estimated scf accuracy    <          1.4E-10 Ry
     smearing contrib. (-TS)   =      -0.00266848 Ry
     internal energy E=F+TS    =     -93.91354071 Ry

     The total energy is F=E-TS. E is the sum of the following terms:
     one-electron contribution =       2.12839917 Ry
     hartree contribution      =      14.43962827 Ry
     xc contribution           =     -25.05817396 Ry
     ewald contribution        =     -71.00321524 Ry
     one-center paw contrib.   =     -14.42017895 Ry
      -> PAW hartree energy AE =       3.23286928 Ry
      -> PAW hartree energy PS =      -3.22465435 Ry
      -> PAW xc energy AE      =      -7.16991010 Ry
      -> PAW xc energy PS      =       2.35153465 Ry
      -> total E_H with PAW    =      14.44784320 Ry
      -> total E_XC with PAW   =     -29.87654941 Ry

     convergence has been achieved in  10 iterations

     Forces acting on atoms (cartesian axes, Ry/au):

     atom    1 type  2   force =     0.00000000    0.00000000   -0.00415105
     atom    2 type  1   force =     0.00000000    0.00000000    0.01021897
     atom    3 type  2   force =     0.00000000    0.00000000   -0.00358200
     atom    4 type  2   force =     0.00000000    0.00000000    0.00576876
     atom    5 type  1   force =     0.00000000    0.00000000   -0.00196208
     atom    6 type  1   force =     0.00000000    0.00000000   -0.00629260
     The non-local contrib.  to forces
     atom    1 type  2   force =     0.00000000    0.00000000   -0.00357382
     atom    2 type  1   force =     0.00000000    0.00000000   -0.40231966
     atom    3 type  2   force =     0.00000000    0.00000000   -0.12165960
     atom    4 type  2   force =     0.00000000    0.00000000    0.14622869
     atom    5 type  1   force =     0.00000000    0.00000000    0.02129275
     atom    6 type  1   force =     0.00000000    0.00000000    0.42105903
     The ionic contribution  to forces
     atom    1 type  2   force =     0.00000000    0.00000000   -0.11700934
     atom    2 type  1   force =    -0.00000000   -0.00000000   -0.97751366
     atom    3 type  2   force =     0.00000000   -0.00000000   -0.02838029
     atom    4 type  2   force =    -0.00000000    0.00000000   -0.02262746
     atom    5 type  1   force =     0.00000000    0.00000000    0.09842957
     atom    6 type  1   force =    -0.00000000   -0.00000000    1.04710119
     The local contribution  to forces
     atom    1 type  2   force =     0.00000000    0.00000000    0.11617298
     atom    2 type  1   force =    -0.00000000   -0.00000000    1.36337430
     atom    3 type  2   force =     0.00000000    0.00000000    0.14878304
     atom    4 type  2   force =     0.00000000    0.00000000   -0.12014319
     atom    5 type  1   force =    -0.00000000   -0.00000000   -0.12005924
     atom    6 type  1   force =    -0.00000000    0.00000000   -1.44632219
     The core correction contribution to forces
     atom    1 type  2   force =    -0.00000000   -0.00000000    0.00027018
     atom    2 type  1   force =     0.00000000    0.00000000    0.02668491
     atom    3 type  2   force =    -0.00000000    0.00000000   -0.00231632
     atom    4 type  2   force =     0.00000000    0.00000000    0.00228248
     atom    5 type  1   force =    -0.00000000   -0.00000000   -0.00163381
     atom    6 type  1   force =    -0.00000000   -0.00000000   -0.02812873
     The Hubbard contrib.    to forces
     atom    1 type  2   force =     0.00000000    0.00000000    0.00000000
     atom    2 type  1   force =     0.00000000    0.00000000    0.00000000
     atom    3 type  2   force =     0.00000000    0.00000000    0.00000000
     atom    4 type  2   force =     0.00000000    0.00000000    0.00000000
     atom    5 type  1   force =     0.00000000    0.00000000    0.00000000
     atom    6 type  1   force =     0.00000000    0.00000000    0.00000000
     The SCF correction term to forces
     atom    1 type  2   force =     0.00000000   -0.00000000   -0.00001208
     atom    2 type  1   force =     0.00000000    0.00000000   -0.00000793
     atom    3 type  2   force =     0.00000000    0.00000000   -0.00000985
     atom    4 type  2   force =     0.00000000    0.00000000    0.00002722
     atom    5 type  1   force =    -0.00000000    0.00000000    0.00000763
     atom    6 type  1   force =     0.00000000    0.00000000   -0.00000292

     Total force =     0.014533     Total SCF correction =     0.000033


     Computing stress (Cartesian axis) and pressure

          total   stress  (Ry/bohr**3)                   (kbar)     P=      -51.32
  -0.00046258   0.00000000   0.00000000          -68.05        0.00        0.00
   0.00000000   0.00002428   0.00000000            0.00        3.57        0.00
   0.00000000   0.00000000  -0.00060835            0.00        0.00      -89.49

     kinetic stress (kbar)  16175.55      0.00      0.00
                                0.00  16207.41      0.00
                                0.00      0.00  15402.94

     local   stress (kbar)  -5035.50     -0.00      0.00
                               -0.00  -5740.53     -0.00
                                0.00     -0.00 -13615.25

     nonloc. stress (kbar)   5805.98      0.00      0.00
                                0.00   5812.28      0.00
                                0.00      0.00   6041.67

     hartree stress (kbar)   1940.42      0.00      0.00
                                0.00   2160.26      0.00
                                0.00      0.00   3458.73

     exc-cor stress (kbar)  -2176.14      0.00      0.00
                                0.00  -2176.14      0.00
                                0.00      0.00  -2176.14

     corecor stress (kbar)  -1679.76     -0.00      0.00
                               -0.00  -1680.88     -0.00
                                0.00     -0.00  -1707.39

     ewald   stress (kbar) -15098.58     -0.00     -0.00
                               -0.00 -14578.83      0.00
                               -0.00      0.00  -7494.05

     hubbard stress (kbar)      0.00      0.00      0.00
                                0.00      0.00      0.00
                                0.00      0.00      0.00

     DFT-D   stress (kbar)      0.00      0.00      0.00
                                0.00      0.00      0.00
                                0.00      0.00      0.00

     XDM     stress (kbar)      0.00      0.00      0.00
                                0.00      0.00      0.00
                                0.00      0.00      0.00

     dft-nl  stress (kbar)      0.00      0.00      0.00
                                0.00      0.00      0.00
                                0.00      0.00      0.00

     TS-vdW  stress (kbar)      0.00      0.00      0.00
                                0.00      0.00      0.00
                                0.00      0.00      0.00

     MDB     stress (kbar)      0.00      0.00      0.00
                                0.00      0.00      0.00
                                0.00      0.00      0.00

     3D-RISM stress (kbar)      0.00      0.00      0.00
                                0.00      0.00      0.00
                                0.00      0.00      0.00

     Energy error            =      1.2E-03 Ry
     Gradient error          =      1.0E-02 Ry/Bohr
     Cell gradient error     =      3.6E+00 kbar

     number of scf cycles    =   2
     number of bfgs steps    =   1

     enthalpy           old  =     -93.9150300398 Ry
     enthalpy           new  =     -93.9162091901 Ry

     CASE: enthalpy          _new < enthalpy          _old

     new trust radius        =       0.0092438326 bohr
     new conv_thr            =       0.0000000001 Ry

     new unit-cell volume =    280.91887 a.u.^3 (    41.62788 Ang^3 )
     density =      2.96902 g/cm^3

CELL_PARAMETERS (alat=  4.96997971)
   1.000000000   0.000000000   0.000000000
   0.000000000   0.986604230   0.000000000
   0.000000000   0.000000000   2.319391635

ATOMIC_POSITIONS (angstrom)
N                1.3150000000        1.2973845620        0.0039822391
B                1.3150000000        0.0000000000        0.8617810906
N                1.3150000000        0.0000000000        2.2089493440
N                0.0000000000        1.2973845620        3.9006578210
B                1.3150000000        1.2973845620        3.0550453595
B                0.0000000000        1.2973845620        5.2503841457



     Writing config-only to output data dir /home/amin/Desktop/QE/Sample-1.save/ :
     XML data file
     NEW-OLD atomic charge density approx. for the potential
     New effective cutoffs (rho, wfc):  266.15   66.71

     Check: negative core charge=   -0.000017

     total cpu time spent up to now is      115.7 secs

     per-process dynamical memory:    16.6 Mb

     Self-consistent Calculation

     iteration #  1     ecut=    65.00 Ry     beta= 0.70
     Davidson diagonalization with overlap

---- Real-time Memory Report at c_bands before calling an iterative solver
            44 MiB given to the printing process from OS
            16 MiB allocation reported by mallinfo(arena+hblkhd)
          6782 MiB available memory on the node where the printing process lives
------------------
     ethr =  1.00E-06,  avg # of iterations =  4.5

     total cpu time spent up to now is      123.9 secs

     total energy              =     -93.91622747 Ry
     estimated scf accuracy    <       0.00006650 Ry

     iteration #  2     ecut=    65.00 Ry     beta= 0.70
     Davidson diagonalization with overlap

---- Real-time Memory Report at c_bands before calling an iterative solver
            44 MiB given to the printing process from OS
            16 MiB allocation reported by mallinfo(arena+hblkhd)
          6799 MiB available memory on the node where the printing process lives
------------------
     ethr =  2.77E-07,  avg # of iterations =  3.0

     total cpu time spent up to now is      128.1 secs

     total energy              =     -93.91624110 Ry
     estimated scf accuracy    <       0.00002044 Ry

     iteration #  3     ecut=    65.00 Ry     beta= 0.70
     Davidson diagonalization with overlap

---- Real-time Memory Report at c_bands before calling an iterative solver
            44 MiB given to the printing process from OS
            16 MiB allocation reported by mallinfo(arena+hblkhd)
          6813 MiB available memory on the node where the printing process lives
------------------
     ethr =  8.51E-08,  avg # of iterations =  2.5

     total cpu time spent up to now is      131.9 secs

     total energy              =     -93.91624542 Ry
     estimated scf accuracy    <       0.00003460 Ry

     iteration #  4     ecut=    65.00 Ry     beta= 0.70
     Davidson diagonalization with overlap

---- Real-time Memory Report at c_bands before calling an iterative solver
            44 MiB given to the printing process from OS
            16 MiB allocation reported by mallinfo(arena+hblkhd)
          6819 MiB available memory on the node where the printing process lives
------------------
     ethr =  8.51E-08,  avg # of iterations =  1.2

     total cpu time spent up to now is      135.9 secs

     total energy              =     -93.91625079 Ry
     estimated scf accuracy    <       0.00000033 Ry

     iteration #  5     ecut=    65.00 Ry     beta= 0.70
     Davidson diagonalization with overlap

---- Real-time Memory Report at c_bands before calling an iterative solver
            44 MiB given to the printing process from OS
            16 MiB allocation reported by mallinfo(arena+hblkhd)
          6811 MiB available memory on the node where the printing process lives
------------------
     ethr =  1.38E-09,  avg # of iterations =  7.2

     total cpu time spent up to now is      144.7 secs

     total energy              =     -93.91625147 Ry
     estimated scf accuracy    <       0.00000051 Ry

     iteration #  6     ecut=    65.00 Ry     beta= 0.70
     Davidson diagonalization with overlap

---- Real-time Memory Report at c_bands before calling an iterative solver
            44 MiB given to the printing process from OS
            16 MiB allocation reported by mallinfo(arena+hblkhd)
          6833 MiB available memory on the node where the printing process lives
------------------
     ethr =  1.38E-09,  avg # of iterations =  2.0

     total cpu time spent up to now is      148.4 secs

     total energy              =     -93.91625154 Ry
     estimated scf accuracy    <       0.00000019 Ry

     iteration #  7     ecut=    65.00 Ry     beta= 0.70
     Davidson diagonalization with overlap

---- Real-time Memory Report at c_bands before calling an iterative solver
            44 MiB given to the printing process from OS
            16 MiB allocation reported by mallinfo(arena+hblkhd)
          6832 MiB available memory on the node where the printing process lives
------------------
     ethr =  7.97E-10,  avg # of iterations =  1.0

     total cpu time spent up to now is      152.9 secs

     total energy              =     -93.91625155 Ry
     estimated scf accuracy    <       0.00000002 Ry

     iteration #  8     ecut=    65.00 Ry     beta= 0.70
     Davidson diagonalization with overlap

---- Real-time Memory Report at c_bands before calling an iterative solver
            44 MiB given to the printing process from OS
            16 MiB allocation reported by mallinfo(arena+hblkhd)
          6824 MiB available memory on the node where the printing process lives
------------------
     ethr =  1.02E-10,  avg # of iterations =  4.7

     total cpu time spent up to now is      162.0 secs

     total energy              =     -93.91625156 Ry
     estimated scf accuracy    <       0.00000001 Ry

     iteration #  9     ecut=    65.00 Ry     beta= 0.70
     Davidson diagonalization with overlap

---- Real-time Memory Report at c_bands before calling an iterative solver
            44 MiB given to the printing process from OS
            16 MiB allocation reported by mallinfo(arena+hblkhd)
          6728 MiB available memory on the node where the printing process lives
------------------
     ethr =  4.52E-11,  avg # of iterations =  1.9

     total cpu time spent up to now is      166.6 secs

     total energy              =     -93.91625156 Ry
     estimated scf accuracy    <          1.3E-09 Ry

     iteration # 10     ecut=    65.00 Ry     beta= 0.70
     Davidson diagonalization with overlap

---- Real-time Memory Report at c_bands before calling an iterative solver
            44 MiB given to the printing process from OS
            16 MiB allocation reported by mallinfo(arena+hblkhd)
          6752 MiB available memory on the node where the printing process lives
------------------
     ethr =  5.26E-12,  avg # of iterations =  5.0

     total cpu time spent up to now is      173.3 secs

     total energy              =     -93.91625156 Ry
     estimated scf accuracy    <          1.9E-10 Ry

     iteration # 11     ecut=    65.00 Ry     beta= 0.70
     Davidson diagonalization with overlap

---- Real-time Memory Report at c_bands before calling an iterative solver
            44 MiB given to the printing process from OS
            16 MiB allocation reported by mallinfo(arena+hblkhd)
          6822 MiB available memory on the node where the printing process lives
------------------
     ethr =  7.84E-13,  avg # of iterations =  3.8

     total cpu time spent up to now is      178.0 secs

     End of self-consistent calculation

          k = 0.0625 0.0633 0.0269 (  2517 PWs)   bands (ev):

   -10.7958  -8.6298  -6.9762   0.6632   1.7903   3.0712   3.2828   5.4999
     5.6672   6.5742   8.8265   9.0146  12.9480  15.0532  16.0404  16.5479

     occupation numbers 
     1.0000   1.0000   1.0000   1.0000   1.0000   1.0000   1.0000   1.0000
     1.0000   1.0000   0.9999   0.9972   0.0000   0.0000   0.0000   0.0000

          k = 0.0625 0.0633 0.0808 (  2521 PWs)   bands (ev):

   -10.7530  -8.8353  -6.7223  -0.0066   2.5293   3.1120   3.3295   5.3391
     5.5693   6.4275   8.9903   9.1593  12.9405  15.0591  15.8670  16.3073

     occupation numbers 
     1.0000   1.0000   1.0000   1.0000   1.0000   1.0000   1.0000   1.0000
     1.0000   1.0000   0.9981   0.9780   0.0000   0.0000   0.0000   0.0000

          k = 0.0625 0.0633 0.1347 (  2524 PWs)   bands (ev):

   -10.6840  -9.0813  -6.4050  -0.5903   3.0582   3.2485   3.5510   5.0885
     5.4409   6.1482   9.2282   9.3695  12.9196  15.0673  15.5316  16.0636

     occupation numbers 
     1.0000   1.0000   1.0000   1.0000   1.0000   1.0000   1.0000   1.0000
     1.0000   1.0000   0.9512   0.8218   0.0000   0.0000   0.0000   0.0000

          k = 0.0625 0.0633 0.1886 (  2515 PWs)   bands (ev):

   -10.6268  -9.2416  -6.1923  -0.9299   3.1378   3.3368   4.1254   4.7795
     5.3622   5.8786   9.4041   9.5211  12.8951  15.0759  15.2784  15.7934

     occupation numbers 
     1.0000   1.0000   1.0000   1.0000   1.0000   1.0000   1.0000   1.0000
     1.0000   1.0000   0.7709   0.5533   0.0000   0.0000   0.0000   0.0000

          k = 0.0625 0.1900 0.0269 (  2530 PWs)   bands (ev):

   -10.3783  -8.2358  -6.6919   0.6501   1.3488   1.8859   3.3513   4.3397
     5.6914   6.0142   7.7924   8.9770  13.6194  15.0769  16.2998  16.6960

     occupation numbers 
     1.0000   1.0000   1.0000   1.0000   1.0000   1.0000   1.0000   1.0000
     1.0000   1.0000   1.0000   0.9985   0.0000   0.0000   0.0000   0.0000

          k = 0.0625 0.1900 0.0808 (  2532 PWs)   bands (ev):

   -10.3381  -8.4313  -6.4603   0.1618   1.3986   2.3655   3.3789   4.1588
     5.6331   6.0596   7.8575   9.1060  13.4750  14.9840  16.2600  16.4968

     occupation numbers 
     1.0000   1.0000   1.0000   1.0000   1.0000   1.0000   1.0000   1.0000
     1.0000   1.0000   1.0000   0.9890   0.0000   0.0000   0.0000   0.0000

          k = 0.0625 0.1900 0.1347 (  2530 PWs)   bands (ev):

   -10.2739  -8.6645  -6.1754  -0.3073   1.4635   2.7987   3.4158   4.0109
     5.5219   6.0296   8.0044   9.2903  13.2537  14.8560  16.0560  16.4128

     occupation numbers 
     1.0000   1.0000   1.0000   1.0000   1.0000   1.0000   1.0000   1.0000
     1.0000   1.0000   1.0000   0.9088   0.0000   0.0000   0.0000   0.0000

          k = 0.0625 0.1900 0.1886 (  2539 PWs)   bands (ev):

   -10.2214  -8.8158  -5.9880  -0.5850   1.5135   2.9894   3.4321   4.0227
     5.4430   5.9305   8.1444   9.4219  13.0845  14.7636  15.8902  16.3988

     occupation numbers 
     1.0000   1.0000   1.0000   1.0000   1.0000   1.0000   1.0000   1.0000
     1.0000   1.0000   1.0000   0.7421   0.0000   0.0000   0.0000   0.0000

          k = 0.0625 0.3167 0.0269 (  2518 PWs)   bands (ev):

    -9.6338  -7.5361  -6.3114  -0.7678   0.4057   1.3194   3.5801   3.7853
     4.9309   6.1766   6.7276   9.0961  12.7215  15.1808  16.6159  17.5431

     occupation numbers 
     1.0000   1.0000   1.0000   1.0000   1.0000   1.0000   1.0000   1.0000
     1.0000   1.0000   1.0000   0.9904   0.0000   0.0000   0.0000   0.0000

          k = 0.0625 0.3167 0.0808 (  2522 PWs)   bands (ev):

    -9.6013  -7.7020  -6.1399  -0.7282   0.2338   1.4644   3.2471   3.7814
     5.3786   6.1084   6.6208   9.1705  12.6845  15.1538  16.5255  17.5558

     occupation numbers 
     1.0000   1.0000   1.0000   1.0000   1.0000   1.0000   1.0000   1.0000
     1.0000   1.0000   1.0000   0.9748   0.0000   0.0000   0.0000   0.0000

          k = 0.0625 0.3167 0.1347 (  2527 PWs)   bands (ev):

    -9.5505  -7.8985  -5.9386  -0.7019   0.1392   1.4394   3.0822   3.8006
     5.7207   6.0352   6.5278   9.2743  12.6179  15.1028  16.4265  17.6196

     occupation numbers 
     1.0000   1.0000   1.0000   1.0000   1.0000   1.0000   1.0000   1.0000
     1.0000   1.0000   1.0000   0.9217   0.0000   0.0000   0.0000   0.0000

          k = 0.0625 0.3167 0.1886 (  2528 PWs)   bands (ev):

    -9.5104  -8.0241  -5.8124  -0.7160   0.1773   1.2695   3.1185   3.8158
     5.7445   6.0261   6.5703   9.3469  12.5607  15.0584  16.3711  17.6881

     occupation numbers 
     1.0000   1.0000   1.0000   1.0000   1.0000   1.0000   1.0000   1.0000
     1.0000   1.0000   1.0000   0.8507   0.0000   0.0000   0.0000   0.0000

          k = 0.0625 0.4434 0.0269 (  2530 PWs)   bands (ev):

    -8.8884  -6.7742  -6.2757  -1.9164  -0.7197   1.0530   3.4581   4.1087
     4.6893   5.9409   6.4886   9.1500  11.7824  15.4554  16.8872  17.8318

     occupation numbers 
     1.0000   1.0000   1.0000   1.0000   1.0000   1.0000   1.0000   1.0000
     1.0000   1.0000   1.0000   0.9804   0.0000   0.0000   0.0000   0.0000

          k = 0.0625 0.4434 0.0808 (  2531 PWs)   bands (ev):

    -8.8717  -6.8614  -6.2183  -1.9552  -0.5631   1.1919   2.8195   4.1058
     5.2466   5.7444   6.4706   9.1614  11.9310  15.4291  16.9075  17.8514

     occupation numbers 
     1.0000   1.0000   1.0000   1.0000   1.0000   1.0000   1.0000   1.0000
     1.0000   1.0000   1.0000   0.9774   0.0000   0.0000   0.0000   0.0000

          k = 0.0625 0.4434 0.1347 (  2525 PWs)   bands (ev):

    -8.8471  -6.9654  -6.1567  -2.0174  -0.2445   1.3055   2.2144   4.1125
     5.4591   5.7395   6.4428   9.1779  12.1328  15.3938  16.9312  17.8902

     occupation numbers 
     1.0000   1.0000   1.0000   1.0000   1.0000   1.0000   1.0000   1.0000
     1.0000   1.0000   1.0000   0.9724   0.0000   0.0000   0.0000   0.0000

          k = 0.0625 0.4434 0.1886 (  2520 PWs)   bands (ev):

    -8.8289  -7.0316  -6.1209  -2.0637   0.1471   1.0900   2.0049   4.1180
     5.2490   6.0196   6.4189   9.1895  12.2706  15.3701  16.9439  17.9813

     occupation numbers 
     1.0000   1.0000   1.0000   1.0000   1.0000   1.0000   1.0000   1.0000
     1.0000   1.0000   1.0000   0.9684   0.0000   0.0000   0.0000   0.0000

          k = 0.1875 0.1900 0.0269 (  2519 PWs)   bands (ev):

    -9.9873  -7.8690  -6.4373   0.7307   1.2229   1.8380   2.1604   4.2577
     4.6938   5.6180   7.4465   8.1581  13.6652  14.5480  17.2710  17.5449

     occupation numbers 
     1.0000   1.0000   1.0000   1.0000   1.0000   1.0000   1.0000   1.0000
     1.0000   1.0000   1.0000   1.0000   0.0000   0.0000   0.0000   0.0000

          k = 0.1875 0.1900 0.0808 (  2515 PWs)   bands (ev):

    -9.9499  -8.0540  -6.2270   0.3339   1.3963   1.8329   2.4516   3.9301
     4.7496   5.6974   7.5966   8.2019  13.5424  14.3352  17.2918  17.8154

     occupation numbers 
     1.0000   1.0000   1.0000   1.0000   1.0000   1.0000   1.0000   1.0000
     1.0000   1.0000   1.0000   1.0000   0.0000   0.0000   0.0000   0.0000

          k = 0.1875 0.1900 0.1347 (  2519 PWs)   bands (ev):

    -9.8906  -8.2740  -5.9723  -0.0422   1.5002   1.8880   2.7713   3.5760
     4.7583   5.7459   7.8004   8.2901  13.3372  14.0966  17.2872  17.9767

     occupation numbers 
     1.0000   1.0000   1.0000   1.0000   1.0000   1.0000   1.0000   1.0000
     1.0000   1.0000   1.0000   1.0000   0.0000   0.0000   0.0000   0.0000

          k = 0.1875 0.1900 0.1886 (  2515 PWs)   bands (ev):

    -9.8427  -8.4160  -5.8076  -0.2658   1.5499   1.9493   3.0119   3.2910
     4.7882   5.7225   7.9566   8.3586  13.1746  13.9561  17.2752  18.0316

     occupation numbers 
     1.0000   1.0000   1.0000   1.0000   1.0000   1.0000   1.0000   1.0000
     1.0000   1.0000   1.0000   1.0000   0.0000   0.0000   0.0000   0.0000

          k = 0.1875 0.3167 0.0269 (  2514 PWs)   bands (ev):

    -9.2627  -7.1916  -6.0627  -0.4095   0.6333   1.4395   2.3261   3.4861
     4.5366   5.2391   6.4635   7.9482  12.3139  14.1454  16.6907  18.2525

     occupation numbers 
     1.0000   1.0000   1.0000   1.0000   1.0000   1.0000   1.0000   1.0000
     1.0000   1.0000   1.0000   1.0000   0.0000   0.0000   0.0000   0.0000

          k = 0.1875 0.3167 0.0808 (  2517 PWs)   bands (ev):

    -9.2328  -7.3471  -5.9070  -0.3707   0.5007   1.5507   2.3555   3.1684
     4.7590   5.2427   6.4829   7.9816  12.3377  13.9932  16.9354  18.2823

     occupation numbers 
     1.0000   1.0000   1.0000   1.0000   1.0000   1.0000   1.0000   1.0000
     1.0000   1.0000   1.0000   1.0000   0.0000   0.0000   0.0000   0.0000

          k = 0.1875 0.3167 0.1347 (  2520 PWs)   bands (ev):

    -9.1865  -7.5306  -5.7260  -0.3385   0.4256   1.5635   2.3678   2.9655
     4.7805   5.3783   6.5015   8.0423  12.3549  13.8090  17.3527  18.3360

     occupation numbers 
     1.0000   1.0000   1.0000   1.0000   1.0000   1.0000   1.0000   1.0000
     1.0000   1.0000   1.0000   1.0000   0.0000   0.0000   0.0000   0.0000

          k = 0.1875 0.3167 0.1886 (  2531 PWs)   bands (ev):

    -9.1502  -7.6476  -5.6136  -0.3415   0.4548   1.4623   2.3599   2.9416
     4.7394   5.4642   6.5295   8.0906  12.3536  13.6982  17.8029  18.3995

     occupation numbers 
     1.0000   1.0000   1.0000   1.0000   1.0000   1.0000   1.0000   1.0000
     1.0000   1.0000   1.0000   1.0000   0.0000   0.0000   0.0000   0.0000

          k = 0.1875 0.4434 0.0269 (  2527 PWs)   bands (ev):

    -8.5454  -6.4630  -6.0064  -1.5125  -0.3900   1.3942   2.6346   3.3118
     4.3839   5.4539   5.7403   7.8603  11.2832  13.8175  16.4342  19.0285

     occupation numbers 
     1.0000   1.0000   1.0000   1.0000   1.0000   1.0000   1.0000   1.0000
     1.0000   1.0000   1.0000   1.0000   0.0000   0.0000   0.0000   0.0000

          k = 0.1875 0.4434 0.0808 (  2523 PWs)   bands (ev):

    -8.5304  -6.5425  -5.9541  -1.5445  -0.2461   1.5042   2.5530   2.9079
     4.7420   5.4082   5.6561   7.8332  11.4503  13.7133  16.6993  19.0098

     occupation numbers 
     1.0000   1.0000   1.0000   1.0000   1.0000   1.0000   1.0000   1.0000
     1.0000   1.0000   1.0000   1.0000   0.0000   0.0000   0.0000   0.0000

          k = 0.1875 0.4434 0.1347 (  2520 PWs)   bands (ev):

    -8.5083  -6.6372  -5.8980  -1.5961   0.0415   1.5559   2.2421   2.7704
     4.9860   5.3315   5.5986   7.8064  11.6871  13.5636  17.1948  18.9622

     occupation numbers 
     1.0000   1.0000   1.0000   1.0000   1.0000   1.0000   1.0000   1.0000
     1.0000   1.0000   1.0000   1.0000   0.0000   0.0000   0.0000   0.0000

          k = 0.1875 0.4434 0.1886 (  2512 PWs)   bands (ev):

    -8.4920  -6.6974  -5.8655  -1.6349   0.3868   1.2989   2.1543   2.7595
     5.0147   5.2754   5.6390   7.7936  11.8595  13.4521  17.8356  18.7145

     occupation numbers 
     1.0000   1.0000   1.0000   1.0000   1.0000   1.0000   1.0000   1.0000
     1.0000   1.0000   1.0000   1.0000   0.0000   0.0000   0.0000   0.0000

          k = 0.3125 0.3167 0.0269 (  2516 PWs)   bands (ev):

    -8.6153  -6.5967  -5.7227  -0.0448   0.5971   0.8822   1.6636   2.9095
     3.8676   4.9422   5.7411   7.0768  10.8495  13.8302  15.9105  18.7901

     occupation numbers 
     1.0000   1.0000   1.0000   1.0000   1.0000   1.0000   1.0000   1.0000
     1.0000   1.0000   1.0000   1.0000   0.0000   0.0000   0.0000   0.0000

          k = 0.3125 0.3167 0.0808 (  2516 PWs)   bands (ev):

    -8.5923  -6.7232  -5.6071  -0.0027   0.6422   0.7888   1.7293   2.7009
     4.0670   4.7724   5.9065   6.9683  11.0088  13.6003  16.1936  18.5611

     occupation numbers 
     1.0000   1.0000   1.0000   1.0000   1.0000   1.0000   1.0000   1.0000
     1.0000   1.0000   1.0000   1.0000   0.0000   0.0000   0.0000   0.0000

          k = 0.3125 0.3167 0.1347 (  2517 PWs)   bands (ev):

    -8.5573  -6.8717  -5.4761   0.0759   0.5373   0.8598   1.7666   2.4764
     4.1882   4.7187   6.0405   6.8305  11.2455  13.2715  16.7165  18.3594

     occupation numbers 
     1.0000   1.0000   1.0000   1.0000   1.0000   1.0000   1.0000   1.0000
     1.0000   1.0000   1.0000   1.0000   0.0000   0.0000   0.0000   0.0000

          k = 0.3125 0.3167 0.1886 (  2511 PWs)   bands (ev):

    -8.5306  -6.9654  -5.3966   0.1701   0.3988   0.9695   1.7679   2.3235
     4.1933   4.7804   6.0943   6.7467  11.4330  13.0224  17.3748  18.1151

     occupation numbers 
     1.0000   1.0000   1.0000   1.0000   1.0000   1.0000   1.0000   1.0000
     1.0000   1.0000   1.0000   1.0000   0.0000   0.0000   0.0000   0.0000

          k = 0.3125 0.4434 0.0269 (  2513 PWs)   bands (ev):

    -7.9554  -5.9485  -5.5965  -0.8161   0.1765   1.0268   1.8627   2.4377
     3.6711   4.8975   5.0775   6.7101   9.6242  13.8223  15.8219  17.7794

     occupation numbers 
     1.0000   1.0000   1.0000   1.0000   1.0000   1.0000   1.0000   1.0000
     1.0000   1.0000   1.0000   1.0000   0.3440   0.0000   0.0000   0.0000

          k = 0.3125 0.4434 0.0808 (  2510 PWs)   bands (ev):

    -7.9444  -6.0083  -5.5561  -0.8347   0.2349   1.0543   1.8778   2.3734
     3.7703   4.7791   5.1111   6.5112   9.9285  13.5357  16.1062  17.6797

     occupation numbers 
     1.0000   1.0000   1.0000   1.0000   1.0000   1.0000   1.0000   1.0000
     1.0000   1.0000   1.0000   1.0000   0.0237   0.0000   0.0000   0.0000

          k = 0.3125 0.4434 0.1347 (  2505 PWs)   bands (ev):

    -7.9285  -6.0793  -5.5127  -0.8635   0.3343   1.0885   1.8458   2.3552
     3.8674   4.6830   5.1039   6.2649  10.3720  13.1111  16.5686  17.5109

     occupation numbers 
     1.0000   1.0000   1.0000   1.0000   1.0000   1.0000   1.0000   1.0000
     1.0000   1.0000   1.0000   1.0000   0.0000   0.0000   0.0000   0.0000

          k = 0.3125 0.4434 0.1886 (  2515 PWs)   bands (ev):

    -7.9168  -6.1242  -5.4875  -0.8853   0.4203   1.1016   1.7993   2.3766
     3.9055   4.6558   5.0751   6.1088  10.7322  12.7628  16.9570  17.3956

     occupation numbers 
     1.0000   1.0000   1.0000   1.0000   1.0000   1.0000   1.0000   1.0000
     1.0000   1.0000   1.0000   1.0000   0.0000   0.0000   0.0000   0.0000

          k = 0.4375 0.4434 0.0269 (  2506 PWs)   bands (ev):

    -7.4077  -5.4802  -5.3375  -0.1971   0.0399   0.7380   1.1566   2.7255
     3.0158   3.9210   5.0308   6.1870   8.3641  14.2178  15.9838  16.6956

     occupation numbers 
     1.0000   1.0000   1.0000   1.0000   1.0000   1.0000   1.0000   1.0000
     1.0000   1.0000   1.0000   1.0000   1.0000   0.0000   0.0000   0.0000

          k = 0.4375 0.4434 0.0808 (  2499 PWs)   bands (ev):

    -7.4031  -5.5032  -5.3202  -0.2114   0.0066   0.4802   1.5701   2.7472
     3.0994   3.9818   4.8086   5.8104   8.8605  13.8059  16.0707  16.4417

     occupation numbers 
     1.0000   1.0000   1.0000   1.0000   1.0000   1.0000   1.0000   1.0000
     1.0000   1.0000   1.0000   1.0000   0.9998   0.0000   0.0000   0.0000

          k = 0.4375 0.4434 0.1347 (  2490 PWs)   bands (ev):

    -7.3965  -5.5303  -5.3013  -0.2232  -0.0518   0.3070   2.0180   2.7547
     3.2625   4.0833   4.4543   5.3464   9.5266  13.1899  16.0573  16.1691

     occupation numbers 
     1.0000   1.0000   1.0000   1.0000   1.0000   1.0000   1.0000   1.0000
     1.0000   1.0000   1.0000   1.0000   0.5420   0.0000   0.0000   0.0000

          k = 0.4375 0.4434 0.1886 (  2499 PWs)   bands (ev):

    -7.3918  -5.5472  -5.2901  -0.2190  -0.1091   0.2263   2.3892   2.6945
     3.5230   3.8937   4.3822   4.9719  10.0652  12.6663  15.9557  16.0340

     occupation numbers 
     1.0000   1.0000   1.0000   1.0000   1.0000   1.0000   1.0000   1.0000
     1.0000   1.0000   1.0000   1.0000   0.0035   0.0000   0.0000   0.0000

          k = 0.1875 0.0633-0.0269 (  2530 PWs)   bands (ev):

   -10.3957  -8.2529  -6.7146   0.5821   1.3035   1.7962   3.5210   4.2788
     5.7562   6.0426   7.7828   9.0942  13.8053  15.0143  16.4304  16.8726

     occupation numbers 
     1.0000   1.0000   1.0000   1.0000   1.0000   1.0000   1.0000   1.0000
     1.0000   1.0000   1.0000   0.9907   0.0000   0.0000   0.0000   0.0000

          k = 0.1875 0.0633-0.0808 (  2532 PWs)   bands (ev):

   -10.3556  -8.4481  -6.4838   0.1285   1.2842   2.3051   3.5448   4.1001
     5.7407   6.0667   7.8367   9.2158  13.6365  14.9439  16.4305  16.6567

     occupation numbers 
     1.0000   1.0000   1.0000   1.0000   1.0000   1.0000   1.0000   1.0000
     1.0000   1.0000   1.0000   0.9573   0.0000   0.0000   0.0000   0.0000

          k = 0.1875 0.0633-0.1347 (  2530 PWs)   bands (ev):

   -10.2916  -8.6810  -6.2001  -0.3297   1.3361   2.7201   3.5726   3.9790
     5.6394   6.0442   7.9750   9.3884  13.3817  14.8465  16.3017  16.5290

     occupation numbers 
     1.0000   1.0000   1.0000   1.0000   1.0000   1.0000   1.0000   1.0000
     1.0000   1.0000   1.0000   0.7949   0.0000   0.0000   0.0000   0.0000

          k = 0.1875 0.0633-0.1886 (  2539 PWs)   bands (ev):

   -10.2393  -8.8320  -6.0137  -0.6034   1.3845   2.8790   3.5864   4.0261
     5.5516   5.9567   8.1141   9.5111  13.1900  14.7751  16.1498  16.5226

     occupation numbers 
     1.0000   1.0000   1.0000   1.0000   1.0000   1.0000   1.0000   1.0000
     1.0000   1.0000   1.0000   0.5739   0.0000   0.0000   0.0000   0.0000

          k = 0.3125 0.0633-0.0269 (  2518 PWs)   bands (ev):

    -9.6862  -7.5862  -6.3767  -0.8338   0.3141   1.3096   3.5838   3.9129
     4.9071   6.2784   6.7957   9.1934  12.7950  15.2976  16.8716  17.7490

     occupation numbers 
     1.0000   1.0000   1.0000   1.0000   1.0000   1.0000   1.0000   1.0000
     1.0000   1.0000   1.0000   0.9669   0.0000   0.0000   0.0000   0.0000

          k = 0.3125 0.0633-0.0808 (  2522 PWs)   bands (ev):

    -9.6540  -7.7513  -6.2069  -0.7982   0.1634   1.4447   3.2256   3.9149
     5.3717   6.2129   6.6801   9.2625  12.7716  15.2642  16.7948  17.7564

     occupation numbers 
     1.0000   1.0000   1.0000   1.0000   1.0000   1.0000   1.0000   1.0000
     1.0000   1.0000   1.0000   0.9303   0.0000   0.0000   0.0000   0.0000

          k = 0.3125 0.0633-0.1347 (  2527 PWs)   bands (ev):

    -9.6038  -7.9466  -6.0080  -0.7816   0.0973   1.4062   3.0536   3.9332
     5.7292   6.1374   6.5761   9.3589  12.7212  15.2084  16.7111  17.8317

     occupation numbers 
     1.0000   1.0000   1.0000   1.0000   1.0000   1.0000   1.0000   1.0000
     1.0000   1.0000   1.0000   0.8358   0.0000   0.0000   0.0000   0.0000

          k = 0.3125 0.0633-0.1886 (  2528 PWs)   bands (ev):

    -9.5641  -8.0714  -5.8836  -0.8030   0.1616   1.2168   3.0925   3.9476
     5.7687   6.1206   6.6093   9.4260  12.6734  15.1633  16.6645  17.9285

     occupation numbers 
     1.0000   1.0000   1.0000   1.0000   1.0000   1.0000   1.0000   1.0000
     1.0000   1.0000   1.0000   0.7352   0.0000   0.0000   0.0000   0.0000

          k = 0.4375 0.0633-0.0269 (  2530 PWs)   bands (ev):

    -8.9848  -6.8632  -6.3712  -1.9234  -0.7705   1.0469   3.4483   4.2097
     4.6722   6.0538   6.5609   9.2352  11.8669  15.5202  17.2390  17.9265

     occupation numbers 
     1.0000   1.0000   1.0000   1.0000   1.0000   1.0000   1.0000   1.0000
     1.0000   1.0000   1.0000   0.9474   0.0000   0.0000   0.0000   0.0000

          k = 0.4375 0.0633-0.0808 (  2531 PWs)   bands (ev):

    -8.9683  -6.9497  -6.3143  -1.9650  -0.6099   1.1902   2.7923   4.2078
     5.2456   5.8450   6.5441   9.2471  12.0338  15.4941  17.2601  17.9338

     occupation numbers 
     1.0000   1.0000   1.0000   1.0000   1.0000   1.0000   1.0000   1.0000
     1.0000   1.0000   1.0000   0.9404   0.0000   0.0000   0.0000   0.0000

          k = 0.4375 0.0633-0.1347 (  2525 PWs)   bands (ev):

    -8.9439  -7.0530  -6.2533  -2.0309  -0.2837   1.3057   2.1781   4.2144
     5.5438   5.7491   6.5181   9.2635  12.2614  15.4581  17.2817  17.9610

     occupation numbers 
     1.0000   1.0000   1.0000   1.0000   1.0000   1.0000   1.0000   1.0000
     1.0000   1.0000   1.0000   0.9296   0.0000   0.0000   0.0000   0.0000

          k = 0.4375 0.0633-0.1886 (  2520 PWs)   bands (ev):

    -8.9259  -7.1187  -6.2178  -2.0794   0.1201   1.0657   1.9834   4.2197
     5.3227   6.0346   6.4962   9.2750  12.4175  15.4329  17.2899  18.0467

     occupation numbers 
     1.0000   1.0000   1.0000   1.0000   1.0000   1.0000   1.0000   1.0000
     1.0000   1.0000   1.0000   0.9212   0.0000   0.0000   0.0000   0.0000

          k = 0.3125 0.1900-0.0269 (  2514 PWs)   bands (ev):

    -9.2975  -7.2242  -6.1051  -0.4531   0.5647   1.4647   2.3866   3.5174
     4.5346   5.2485   6.5495   7.9499  12.4233  14.0728  16.7273  18.5895

     occupation numbers 
     1.0000   1.0000   1.0000   1.0000   1.0000   1.0000   1.0000   1.0000
     1.0000   1.0000   1.0000   1.0000   0.0000   0.0000   0.0000   0.0000

          k = 0.3125 0.1900-0.0808 (  2517 PWs)   bands (ev):

    -9.2678  -7.3791  -5.9505  -0.4179   0.4498   1.5685   2.4106   3.1862
     4.7741   5.2574   6.5563   7.9838  12.4488  13.9318  16.9717  18.6193

     occupation numbers 
     1.0000   1.0000   1.0000   1.0000   1.0000   1.0000   1.0000   1.0000
     1.0000   1.0000   1.0000   1.0000   0.0000   0.0000   0.0000   0.0000

          k = 0.3125 0.1900-0.1347 (  2520 PWs)   bands (ev):

    -9.2219  -7.5619  -5.7709  -0.3952   0.4012   1.5641   2.4183   2.9865
     4.8041   5.3961   6.5619   8.0450  12.4675  13.7613  17.3937  18.6710

     occupation numbers 
     1.0000   1.0000   1.0000   1.0000   1.0000   1.0000   1.0000   1.0000
     1.0000   1.0000   1.0000   1.0000   0.0000   0.0000   0.0000   0.0000

          k = 0.3125 0.1900-0.1886 (  2531 PWs)   bands (ev):

    -9.1859  -7.6783  -5.6596  -0.4063   0.4563   1.4375   2.4118   2.9714
     4.7643   5.4824   6.5835   8.0933  12.4666  13.6597  17.8658  18.6734

     occupation numbers 
     1.0000   1.0000   1.0000   1.0000   1.0000   1.0000   1.0000   1.0000
     1.0000   1.0000   1.0000   1.0000   0.0000   0.0000   0.0000   0.0000

          k = 0.4375 0.1900-0.0269 (  2527 PWs)   bands (ev):

    -8.6235  -6.5325  -6.0808  -1.4992  -0.4237   1.4090   2.6649   3.3368
     4.3759   5.4533   5.8729   7.8572  11.4469  13.7355  16.4819  19.3532

     occupation numbers 
     1.0000   1.0000   1.0000   1.0000   1.0000   1.0000   1.0000   1.0000
     1.0000   1.0000   1.0000   1.0000   0.0000   0.0000   0.0000   0.0000

          k = 0.4375 0.1900-0.0808 (  2523 PWs)   bands (ev):

    -8.6085  -6.6117  -6.0287  -1.5337  -0.2749   1.5230   2.5648   2.9278
     4.7514   5.4302   5.7611   7.8365  11.6131  13.6444  16.7447  19.3042

     occupation numbers 
     1.0000   1.0000   1.0000   1.0000   1.0000   1.0000   1.0000   1.0000
     1.0000   1.0000   1.0000   1.0000   0.0000   0.0000   0.0000   0.0000

          k = 0.4375 0.1900-0.1347 (  2520 PWs)   bands (ev):

    -8.5865  -6.7061  -5.9730  -1.5889   0.0234   1.5704   2.2303   2.8037
     5.0032   5.3987   5.6518   7.8175  11.8484  13.5130  17.2350  19.2116

     occupation numbers 
     1.0000   1.0000   1.0000   1.0000   1.0000   1.0000   1.0000   1.0000
     1.0000   1.0000   1.0000   1.0000   0.0000   0.0000   0.0000   0.0000

          k = 0.4375 0.1900-0.1886 (  2512 PWs)   bands (ev):

    -8.5704  -6.7661  -5.9407  -1.6300   0.3883   1.2769   2.1588   2.7937
     5.0477   5.3407   5.6767   7.8094  12.0194  13.4146  17.8576  18.8146

     occupation numbers 
     1.0000   1.0000   1.0000   1.0000   1.0000   1.0000   1.0000   1.0000
     1.0000   1.0000   1.0000   1.0000   0.0000   0.0000   0.0000   0.0000

          k = 0.4375 0.3167-0.0269 (  2513 PWs)   bands (ev):

    -7.9973  -5.9820  -5.6324  -0.7643   0.1776   0.9832   1.8987   2.4493
     3.6341   4.9571   5.0916   6.6862   9.7030  13.7741  15.8119  17.8710

     occupation numbers 
     1.0000   1.0000   1.0000   1.0000   1.0000   1.0000   1.0000   1.0000
     1.0000   1.0000   1.0000   1.0000   0.2086   0.0000   0.0000   0.0000

          k = 0.4375 0.3167-0.0808 (  2510 PWs)   bands (ev):

    -7.9863  -6.0422  -5.5918  -0.7843   0.2420   1.0137   1.9005   2.3861
     3.7295   4.8190   5.1601   6.4880   9.9963  13.5000  16.0960  17.7719

     occupation numbers 
     1.0000   1.0000   1.0000   1.0000   1.0000   1.0000   1.0000   1.0000
     1.0000   1.0000   1.0000   1.0000   0.0097   0.0000   0.0000   0.0000

          k = 0.4375 0.3167-0.1347 (  2505 PWs)   bands (ev):

    -7.9703  -6.1136  -5.5484  -0.8155   0.3512   1.0592   1.8290   2.3833
     3.8185   4.7226   5.1783   6.2374  10.4250  13.0933  16.5586  17.6043

     occupation numbers 
     1.0000   1.0000   1.0000   1.0000   1.0000   1.0000   1.0000   1.0000
     1.0000   1.0000   1.0000   1.0000   0.0000   0.0000   0.0000   0.0000

          k = 0.4375 0.3167-0.1886 (  2515 PWs)   bands (ev):

    -7.9586  -6.1587  -5.5233  -0.8390   0.4450   1.0903   1.7417   2.4179
     3.8512   4.6965   5.1670   6.0754  10.7724  12.7603  16.9453  17.4979

     occupation numbers 
     1.0000   1.0000   1.0000   1.0000   1.0000   1.0000   1.0000   1.0000
     1.0000   1.0000   1.0000   1.0000   0.0000   0.0000   0.0000   0.0000

     the Fermi energy is     9.5469 ev

!    total energy              =     -93.91625156 Ry
     estimated scf accuracy    <          1.3E-11 Ry
     smearing contrib. (-TS)   =      -0.00246390 Ry
     internal energy E=F+TS    =     -93.91378766 Ry

     The total energy is F=E-TS. E is the sum of the following terms:
     one-electron contribution =       2.11339480 Ry
     hartree contribution      =      14.45242005 Ry
     xc contribution           =     -25.06426530 Ry
     ewald contribution        =     -70.99464998 Ry
     one-center paw contrib.   =     -14.42068723 Ry
      -> PAW hartree energy AE =       3.25073329 Ry
      -> PAW hartree energy PS =      -3.24247947 Ry
      -> PAW xc energy AE      =      -7.17660580 Ry
      -> PAW xc energy PS      =       2.35791203 Ry
      -> total E_H with PAW    =      14.46067387 Ry
      -> total E_XC with PAW   =     -29.88295906 Ry

     convergence has been achieved in  11 iterations

     Forces acting on atoms (cartesian axes, Ry/au):

     atom    1 type  2   force =     0.00000000    0.00000000   -0.00098193
     atom    2 type  1   force =     0.00000000    0.00000000   -0.00382207
     atom    3 type  2   force =     0.00000000    0.00000000    0.00688960
     atom    4 type  2   force =     0.00000000    0.00000000   -0.00525353
     atom    5 type  1   force =     0.00000000    0.00000000   -0.00032555
     atom    6 type  1   force =     0.00000000    0.00000000    0.00349347
     The non-local contrib.  to forces
     atom    1 type  2   force =     0.00000000    0.00000000    0.00325503
     atom    2 type  1   force =     0.00000000    0.00000000   -0.41862473
     atom    3 type  2   force =     0.00000000    0.00000000   -0.10721772
     atom    4 type  2   force =     0.00000000    0.00000000    0.12939813
     atom    5 type  1   force =     0.00000000    0.00000000    0.02211085
     atom    6 type  1   force =     0.00000000    0.00000000    0.43258549
     The ionic contribution  to forces
     atom    1 type  2   force =    -0.00000000   -0.00000000   -0.10354390
     atom    2 type  1   force =    -0.00000000   -0.00000000   -1.03876194
     atom    3 type  2   force =    -0.00000000   -0.00000000    0.01920668
     atom    4 type  2   force =    -0.00000000   -0.00000000   -0.07726614
     atom    5 type  1   force =     0.00000000   -0.00000000    0.10007451
     atom    6 type  1   force =    -0.00000000   -0.00000000    1.10029079
     The local contribution  to forces
     atom    1 type  2   force =     0.00000000    0.00000000    0.09911471
     atom    2 type  1   force =     0.00000000    0.00000000    1.42572987
     atom    3 type  2   force =     0.00000000    0.00000000    0.09752097
     atom    4 type  2   force =    -0.00000000    0.00000000   -0.05997849
     atom    5 type  1   force =    -0.00000000   -0.00000000   -0.12081555
     atom    6 type  1   force =     0.00000000    0.00000000   -1.50040094
     The core correction contribution to forces
     atom    1 type  2   force =     0.00000000    0.00000000    0.00019027
     atom    2 type  1   force =     0.00000000   -0.00000000    0.02783664
     atom    3 type  2   force =     0.00000000   -0.00000000   -0.00261718
     atom    4 type  2   force =    -0.00000000    0.00000000    0.00259064
     atom    5 type  1   force =     0.00000000    0.00000000   -0.00169585
     atom    6 type  1   force =    -0.00000000    0.00000000   -0.02898482
     The Hubbard contrib.    to forces
     atom    1 type  2   force =     0.00000000    0.00000000    0.00000000
     atom    2 type  1   force =     0.00000000    0.00000000    0.00000000
     atom    3 type  2   force =     0.00000000    0.00000000    0.00000000
     atom    4 type  2   force =     0.00000000    0.00000000    0.00000000
     atom    5 type  1   force =     0.00000000    0.00000000    0.00000000
     atom    6 type  1   force =     0.00000000    0.00000000    0.00000000
     The SCF correction term to forces
     atom    1 type  2   force =     0.00000000    0.00000000    0.00000145
     atom    2 type  1   force =    -0.00000000   -0.00000000   -0.00000241
     atom    3 type  2   force =     0.00000000    0.00000000   -0.00000365
     atom    4 type  2   force =     0.00000000    0.00000000    0.00000182
     atom    5 type  1   force =    -0.00000000    0.00000000   -0.00000001
     atom    6 type  1   force =     0.00000000   -0.00000000    0.00000245

     Total force =     0.010146     Total SCF correction =     0.000006


     Computing stress (Cartesian axis) and pressure

          total   stress  (Ry/bohr**3)                   (kbar)     P=      -45.59
  -0.00046711   0.00000000   0.00000000          -68.71        0.00        0.00
   0.00000000   0.00002572   0.00000000            0.00        3.78        0.00
   0.00000000   0.00000000  -0.00048843            0.00        0.00      -71.85

     kinetic stress (kbar)  16191.23      0.00      0.00
                                0.00  16223.80      0.00
                                0.00      0.00  15403.27

     local   stress (kbar)  -4995.50      0.00     -0.00
                                0.00  -5683.88     -0.00
                               -0.00     -0.00 -13737.03

     nonloc. stress (kbar)   5808.48      0.00      0.00
                                0.00   5813.80      0.00
                                0.00      0.00   6050.62

     hartree stress (kbar)   1933.67     -0.00      0.00
                               -0.00   2151.48     -0.00
                                0.00     -0.00   3482.96

     exc-cor stress (kbar)  -2177.53      0.00      0.00
                                0.00  -2177.53      0.00
                                0.00      0.00  -2177.53

     corecor stress (kbar)  -1680.35      0.00      0.00
                                0.00  -1681.36     -0.00
                                0.00     -0.00  -1708.54

     ewald   stress (kbar) -15148.71     -0.00      0.00
                               -0.00 -14642.53     -0.00
                                0.00     -0.00  -7385.59

     hubbard stress (kbar)      0.00      0.00      0.00
                                0.00      0.00      0.00
                                0.00      0.00      0.00

     DFT-D   stress (kbar)      0.00      0.00      0.00
                                0.00      0.00      0.00
                                0.00      0.00      0.00

     XDM     stress (kbar)      0.00      0.00      0.00
                                0.00      0.00      0.00
                                0.00      0.00      0.00

     dft-nl  stress (kbar)      0.00      0.00      0.00
                                0.00      0.00      0.00
                                0.00      0.00      0.00

     TS-vdW  stress (kbar)      0.00      0.00      0.00
                                0.00      0.00      0.00
                                0.00      0.00      0.00

     MDB     stress (kbar)      0.00      0.00      0.00
                                0.00      0.00      0.00
                                0.00      0.00      0.00

     3D-RISM stress (kbar)      0.00      0.00      0.00
                                0.00      0.00      0.00
                                0.00      0.00      0.00

     Energy error            =      4.2E-05 Ry
     Gradient error          =      6.9E-03 Ry/Bohr
     Cell gradient error     =      3.8E+00 kbar

     number of scf cycles    =   3
     number of bfgs steps    =   2

     enthalpy           old  =     -93.9162091901 Ry
     enthalpy           new  =     -93.9162515629 Ry

     CASE: enthalpy          _new < enthalpy          _old

     new trust radius        =       0.0039722430 bohr
     new conv_thr            =            1.0E-11 Ry

     new unit-cell volume =    281.12035 a.u.^3 (    41.65774 Ang^3 )
     density =      2.96689 g/cm^3

CELL_PARAMETERS (alat=  4.96997971)
   1.000000000   0.000000000   0.000000000
   0.000000000   0.987311855   0.000000000
   0.000000000   0.000000000   2.319391635

ATOMIC_POSITIONS (angstrom)
N                1.3150000000        1.2983150887        0.0032940333
B                1.3150000000        0.0000000000        0.8611111172
N                1.3150000000        0.0000000000        2.2110513645
N                0.0000000000        1.2983150887        3.8993611796
B                1.3150000000        1.2983150887        3.0547181228
B                0.0000000000        1.2983150887        5.2512641827



     Writing config-only to output data dir /home/amin/Desktop/QE/Sample-1.save/ :
     XML data file
     NEW-OLD atomic charge density approx. for the potential
     New effective cutoffs (rho, wfc):  265.81   66.62

     Check: negative core charge=   -0.000017

     total cpu time spent up to now is      181.6 secs

     per-process dynamical memory:    16.6 Mb

     Self-consistent Calculation

     iteration #  1     ecut=    65.00 Ry     beta= 0.70
     Davidson diagonalization with overlap

---- Real-time Memory Report at c_bands before calling an iterative solver
            44 MiB given to the printing process from OS
            16 MiB allocation reported by mallinfo(arena+hblkhd)
          6840 MiB available memory on the node where the printing process lives
------------------
     ethr =  1.00E-06,  avg # of iterations =  2.9

     Threshold (ethr) on eigenvalues was too large:
     Diagonalizing with lowered threshold

     Davidson diagonalization with overlap

---- Real-time Memory Report at c_bands before calling an iterative solver
            44 MiB given to the printing process from OS
            16 MiB allocation reported by mallinfo(arena+hblkhd)
          6838 MiB available memory on the node where the printing process lives
------------------
     ethr =  4.10E-08,  avg # of iterations =  5.0

     total cpu time spent up to now is      193.9 secs

     total energy              =     -93.91627184 Ry
     estimated scf accuracy    <       0.00002005 Ry

     iteration #  2     ecut=    65.00 Ry     beta= 0.70
     Davidson diagonalization with overlap

---- Real-time Memory Report at c_bands before calling an iterative solver
            44 MiB given to the printing process from OS
            16 MiB allocation reported by mallinfo(arena+hblkhd)
          6841 MiB available memory on the node where the printing process lives
------------------
     ethr =  8.35E-08,  avg # of iterations =  3.7

     total cpu time spent up to now is      198.6 secs

     total energy              =     -93.91626885 Ry
     estimated scf accuracy    <       0.00004929 Ry

     iteration #  3     ecut=    65.00 Ry     beta= 0.70
     Davidson diagonalization with overlap

---- Real-time Memory Report at c_bands before calling an iterative solver
            44 MiB given to the printing process from OS
            16 MiB allocation reported by mallinfo(arena+hblkhd)
          6847 MiB available memory on the node where the printing process lives
------------------
     ethr =  8.35E-08,  avg # of iterations =  2.2

     total cpu time spent up to now is      202.6 secs

     total energy              =     -93.91627897 Ry
     estimated scf accuracy    <       0.00000765 Ry

     iteration #  4     ecut=    65.00 Ry     beta= 0.70
     Davidson diagonalization with overlap

---- Real-time Memory Report at c_bands before calling an iterative solver
            44 MiB given to the printing process from OS
            16 MiB allocation reported by mallinfo(arena+hblkhd)
          6842 MiB available memory on the node where the printing process lives
------------------
     ethr =  3.19E-08,  avg # of iterations =  1.2

     total cpu time spent up to now is      205.8 secs

     total energy              =     -93.91628012 Ry
     estimated scf accuracy    <       0.00000010 Ry

     iteration #  5     ecut=    65.00 Ry     beta= 0.70
     Davidson diagonalization with overlap

---- Real-time Memory Report at c_bands before calling an iterative solver
            44 MiB given to the printing process from OS
            16 MiB allocation reported by mallinfo(arena+hblkhd)
          6840 MiB available memory on the node where the printing process lives
------------------
     ethr =  4.31E-10,  avg # of iterations =  7.3

     total cpu time spent up to now is      214.0 secs

     total energy              =     -93.91628038 Ry
     estimated scf accuracy    <       0.00000014 Ry

     iteration #  6     ecut=    65.00 Ry     beta= 0.70
     Davidson diagonalization with overlap

---- Real-time Memory Report at c_bands before calling an iterative solver
            44 MiB given to the printing process from OS
            16 MiB allocation reported by mallinfo(arena+hblkhd)
          6841 MiB available memory on the node where the printing process lives
------------------
     ethr =  4.31E-10,  avg # of iterations =  1.9

     total cpu time spent up to now is      217.4 secs

     total energy              =     -93.91628038 Ry
     estimated scf accuracy    <       0.00000004 Ry

     iteration #  7     ecut=    65.00 Ry     beta= 0.70
     Davidson diagonalization with overlap

---- Real-time Memory Report at c_bands before calling an iterative solver
            44 MiB given to the printing process from OS
            16 MiB allocation reported by mallinfo(arena+hblkhd)
          6841 MiB available memory on the node where the printing process lives
------------------
     ethr =  1.85E-10,  avg # of iterations =  2.4

     total cpu time spent up to now is      221.0 secs

     total energy              =     -93.91628037 Ry
     estimated scf accuracy    <       0.00000001 Ry

     iteration #  8     ecut=    65.00 Ry     beta= 0.70
     Davidson diagonalization with overlap

---- Real-time Memory Report at c_bands before calling an iterative solver
            44 MiB given to the printing process from OS
            16 MiB allocation reported by mallinfo(arena+hblkhd)
          6840 MiB available memory on the node where the printing process lives
------------------
     ethr =  6.17E-11,  avg # of iterations =  5.2

     total cpu time spent up to now is      227.2 secs

     total energy              =     -93.91628039 Ry
     estimated scf accuracy    <       0.00000002 Ry

     iteration #  9     ecut=    65.00 Ry     beta= 0.70
     Davidson diagonalization with overlap

---- Real-time Memory Report at c_bands before calling an iterative solver
            44 MiB given to the printing process from OS
            16 MiB allocation reported by mallinfo(arena+hblkhd)
          6841 MiB available memory on the node where the printing process lives
------------------
     ethr =  6.17E-11,  avg # of iterations =  1.0

     total cpu time spent up to now is      230.1 secs

     total energy              =     -93.91628038 Ry
     estimated scf accuracy    <          7.5E-09 Ry

     iteration # 10     ecut=    65.00 Ry     beta= 0.70
     Davidson diagonalization with overlap

---- Real-time Memory Report at c_bands before calling an iterative solver
            44 MiB given to the printing process from OS
            16 MiB allocation reported by mallinfo(arena+hblkhd)
          6840 MiB available memory on the node where the printing process lives
------------------
     ethr =  3.13E-11,  avg # of iterations =  3.5

     total cpu time spent up to now is      234.3 secs

     total energy              =     -93.91628038 Ry
     estimated scf accuracy    <          1.6E-10 Ry

     iteration # 11     ecut=    65.00 Ry     beta= 0.70
     Davidson diagonalization with overlap

---- Real-time Memory Report at c_bands before calling an iterative solver
            44 MiB given to the printing process from OS
            16 MiB allocation reported by mallinfo(arena+hblkhd)
          6840 MiB available memory on the node where the printing process lives
------------------
     ethr =  6.78E-13,  avg # of iterations =  5.8

     total cpu time spent up to now is      241.1 secs

     total energy              =     -93.91628039 Ry
     estimated scf accuracy    <          1.8E-10 Ry

     iteration # 12     ecut=    65.00 Ry     beta= 0.70
     Davidson diagonalization with overlap

---- Real-time Memory Report at c_bands before calling an iterative solver
            44 MiB given to the printing process from OS
            16 MiB allocation reported by mallinfo(arena+hblkhd)
          6839 MiB available memory on the node where the printing process lives
------------------
     ethr =  6.78E-13,  avg # of iterations =  2.4

     total cpu time spent up to now is      245.4 secs

     total energy              =     -93.91628039 Ry
     estimated scf accuracy    <          1.4E-11 Ry

     iteration # 13     ecut=    65.00 Ry     beta= 0.70
     Davidson diagonalization with overlap

---- Real-time Memory Report at c_bands before calling an iterative solver
            44 MiB given to the printing process from OS
            16 MiB allocation reported by mallinfo(arena+hblkhd)
          6825 MiB available memory on the node where the printing process lives
------------------
     ethr =  1.00E-13,  avg # of iterations =  4.2

     total cpu time spent up to now is      251.4 secs

     End of self-consistent calculation

          k = 0.0625 0.0633 0.0269 (  2517 PWs)   bands (ev):

   -10.8035  -8.6369  -6.9676   0.6686   1.7850   3.0558   3.2635   5.4863
     5.6385   6.5797   8.8296   9.0144  12.9273  15.0366  16.0180  16.5193

     occupation numbers 
     1.0000   1.0000   1.0000   1.0000   1.0000   1.0000   1.0000   1.0000
     1.0000   1.0000   0.9999   0.9969   0.0000   0.0000   0.0000   0.0000

          k = 0.0625 0.0633 0.0808 (  2521 PWs)   bands (ev):

   -10.7609  -8.8407  -6.7151  -0.0049   2.5262   3.0966   3.3110   5.3257
     5.5441   6.4315   8.9924   9.1578  12.9199  15.0429  15.8480  16.2793

     occupation numbers 
     1.0000   1.0000   1.0000   1.0000   1.0000   1.0000   1.0000   1.0000
     1.0000   1.0000   0.9978   0.9767   0.0000   0.0000   0.0000   0.0000

          k = 0.0625 0.0633 0.1347 (  2524 PWs)   bands (ev):

   -10.6923  -9.0851  -6.3986  -0.5900   3.0442   3.2333   3.5435   5.0766
     5.4198   6.1496   9.2289   9.3663  12.8991  15.0514  15.5167  16.0425

     occupation numbers 
     1.0000   1.0000   1.0000   1.0000   1.0000   1.0000   1.0000   1.0000
     1.0000   1.0000   0.9475   0.8178   0.0000   0.0000   0.0000   0.0000

          k = 0.0625 0.0633 0.1886 (  2515 PWs)   bands (ev):

   -10.6356  -9.2445  -6.1861  -0.9302   3.1208   3.3182   4.1239   4.7697
     5.3448   5.8762   9.4040   9.5169  12.8747  15.0599  15.2655  15.7767

     occupation numbers 
     1.0000   1.0000   1.0000   1.0000   1.0000   1.0000   1.0000   1.0000
     1.0000   1.0000   0.7614   0.5495   0.0000   0.0000   0.0000   0.0000

          k = 0.0625 0.1899 0.0269 (  2530 PWs)   bands (ev):

   -10.3871  -8.2434  -6.6849   0.6491   1.3400   1.8741   3.3346   4.3183
     5.6815   6.0158   7.7972   8.9805  13.6051  15.0546  16.2845  16.6748

     occupation numbers 
     1.0000   1.0000   1.0000   1.0000   1.0000   1.0000   1.0000   1.0000
     1.0000   1.0000   1.0000   0.9982   0.0000   0.0000   0.0000   0.0000

          k = 0.0625 0.1899 0.0808 (  2532 PWs)   bands (ev):

   -10.3471  -8.4372  -6.4546   0.1611   1.3842   2.3572   3.3619   4.1416
     5.6222   6.0624   7.8604   9.1083  13.4612  14.9625  16.2439  16.4807

     occupation numbers 
     1.0000   1.0000   1.0000   1.0000   1.0000   1.0000   1.0000   1.0000
     1.0000   1.0000   1.0000   0.9877   0.0000   0.0000   0.0000   0.0000

          k = 0.0625 0.1899 0.1347 (  2530 PWs)   bands (ev):

   -10.2834  -8.6689  -6.1705  -0.3084   1.4478   2.7870   3.3981   4.0008
     5.5121   6.0328   8.0046   9.2909  13.2408  14.8354  16.0415  16.3997

     occupation numbers 
     1.0000   1.0000   1.0000   1.0000   1.0000   1.0000   1.0000   1.0000
     1.0000   1.0000   1.0000   0.9030   0.0000   0.0000   0.0000   0.0000

          k = 0.0625 0.1899 0.1886 (  2539 PWs)   bands (ev):

   -10.2313  -8.8193  -5.9834  -0.5864   1.4974   2.9727   3.4140   4.0193
     5.4342   5.9340   8.1429   9.4215  13.0722  14.7435  15.8771  16.3869

     occupation numbers 
     1.0000   1.0000   1.0000   1.0000   1.0000   1.0000   1.0000   1.0000
     1.0000   1.0000   1.0000   0.7324   0.0000   0.0000   0.0000   0.0000

          k = 0.0625 0.3165 0.0269 (  2518 PWs)   bands (ev):

    -9.6449  -7.5440  -6.3080  -0.7790   0.3914   1.3221   3.5669   3.7674
     4.9347   6.1638   6.7373   9.0971  12.7103  15.1567  16.5944  17.5352

     occupation numbers 
     1.0000   1.0000   1.0000   1.0000   1.0000   1.0000   1.0000   1.0000
     1.0000   1.0000   1.0000   0.9894   0.0000   0.0000   0.0000   0.0000

          k = 0.0625 0.3165 0.0808 (  2522 PWs)   bands (ev):

    -9.6126  -7.7084  -6.1378  -0.7399   0.2237   1.4618   3.2390   3.7626
     5.3800   6.0971   6.6286   9.1707  12.6746  15.1299  16.5064  17.5446

     occupation numbers 
     1.0000   1.0000   1.0000   1.0000   1.0000   1.0000   1.0000   1.0000
     1.0000   1.0000   1.0000   0.9728   0.0000   0.0000   0.0000   0.0000

          k = 0.0625 0.3165 0.1347 (  2527 PWs)   bands (ev):

    -9.5623  -7.9035  -5.9373  -0.7143   0.1328   1.4311   3.0782   3.7813
     5.7224   6.0265   6.5316   9.2736  12.6097  15.0794  16.4094  17.6061

     occupation numbers 
     1.0000   1.0000   1.0000   1.0000   1.0000   1.0000   1.0000   1.0000
     1.0000   1.0000   1.0000   0.9176   0.0000   0.0000   0.0000   0.0000

          k = 0.0625 0.3165 0.1886 (  2528 PWs)   bands (ev):

    -9.5225  -8.0284  -5.8115  -0.7287   0.1735   1.2574   3.1163   3.7963
     5.7462   6.0205   6.5708   9.3455  12.5535  15.0354  16.3549  17.6747

     occupation numbers 
     1.0000   1.0000   1.0000   1.0000   1.0000   1.0000   1.0000   1.0000
     1.0000   1.0000   1.0000   0.8450   0.0000   0.0000   0.0000   0.0000

          k = 0.0625 0.4431 0.0269 (  2530 PWs)   bands (ev):

    -8.9028  -6.7804  -6.2778  -1.9275  -0.7282   1.0546   3.4493   4.0883
     4.6925   5.9518   6.4758   9.1488  11.7738  15.4274  16.8693  17.8244

     occupation numbers 
     1.0000   1.0000   1.0000   1.0000   1.0000   1.0000   1.0000   1.0000
     1.0000   1.0000   1.0000   0.9792   0.0000   0.0000   0.0000   0.0000

          k = 0.0625 0.4431 0.0808 (  2531 PWs)   bands (ev):

    -8.8863  -6.8668  -6.2211  -1.9664  -0.5709   1.1930   2.8131   4.0852
     5.2478   5.7546   6.4580   9.1602  11.9236  15.4013  16.8894  17.8393

     occupation numbers 
     1.0000   1.0000   1.0000   1.0000   1.0000   1.0000   1.0000   1.0000
     1.0000   1.0000   1.0000   0.9761   0.0000   0.0000   0.0000   0.0000

          k = 0.0625 0.4431 0.1347 (  2525 PWs)   bands (ev):

    -8.8618  -6.9701  -6.1600  -2.0287  -0.2516   1.3051   2.2093   4.0917
     5.4682   5.7406   6.4304   9.1764  12.1270  15.3664  16.9127  17.8724

     occupation numbers 
     1.0000   1.0000   1.0000   1.0000   1.0000   1.0000   1.0000   1.0000
     1.0000   1.0000   1.0000   0.9709   0.0000   0.0000   0.0000   0.0000

          k = 0.0625 0.4431 0.1886 (  2520 PWs)   bands (ev):

    -8.8438  -7.0360  -6.1244  -2.0749   0.1406   1.0865   2.0026   4.0971
     5.2576   6.0210   6.4064   9.1879  12.2658  15.3429  16.9250  17.9591

     occupation numbers 
     1.0000   1.0000   1.0000   1.0000   1.0000   1.0000   1.0000   1.0000
     1.0000   1.0000   1.0000   0.9667   0.0000   0.0000   0.0000   0.0000

          k = 0.1875 0.1899 0.0269 (  2519 PWs)   bands (ev):

    -9.9962  -7.8762  -6.4305   0.7291   1.2119   1.8292   2.1461   4.2407
     4.6768   5.6235   7.4459   8.1652  13.6405  14.5289  17.2559  17.5318

     occupation numbers 
     1.0000   1.0000   1.0000   1.0000   1.0000   1.0000   1.0000   1.0000
     1.0000   1.0000   1.0000   1.0000   0.0000   0.0000   0.0000   0.0000

          k = 0.1875 0.1899 0.0808 (  2515 PWs)   bands (ev):

    -9.9591  -8.0596  -6.2215   0.3326   1.3825   1.8204   2.4421   3.9159
     4.7336   5.7023   7.5954   8.2071  13.5189  14.3177  17.2749  17.8011

     occupation numbers 
     1.0000   1.0000   1.0000   1.0000   1.0000   1.0000   1.0000   1.0000
     1.0000   1.0000   1.0000   1.0000   0.0000   0.0000   0.0000   0.0000

          k = 0.1875 0.1899 0.1347 (  2519 PWs)   bands (ev):

    -9.9003  -8.2782  -5.9677  -0.0434   1.4845   1.8739   2.7626   3.5638
     4.7453   5.7508   7.7982   8.2929  13.3154  14.0805  17.2701  17.9580

     occupation numbers 
     1.0000   1.0000   1.0000   1.0000   1.0000   1.0000   1.0000   1.0000
     1.0000   1.0000   1.0000   1.0000   0.0000   0.0000   0.0000   0.0000

          k = 0.1875 0.1899 0.1886 (  2515 PWs)   bands (ev):

    -9.8528  -8.4193  -5.8033  -0.2671   1.5334   1.9344   3.0021   3.2807
     4.7773   5.7280   7.9531   8.3602  13.1539  13.9408  17.2581  18.0138

     occupation numbers 
     1.0000   1.0000   1.0000   1.0000   1.0000   1.0000   1.0000   1.0000
     1.0000   1.0000   1.0000   1.0000   0.0000   0.0000   0.0000   0.0000

          k = 0.1875 0.3165 0.0269 (  2514 PWs)   bands (ev):

    -9.2740  -7.1992  -6.0594  -0.4203   0.6194   1.4412   2.3099   3.4726
     4.5339   5.2338   6.4691   7.9517  12.2979  14.1199  16.6822  18.2390

     occupation numbers 
     1.0000   1.0000   1.0000   1.0000   1.0000   1.0000   1.0000   1.0000
     1.0000   1.0000   1.0000   1.0000   0.0000   0.0000   0.0000   0.0000

          k = 0.1875 0.3165 0.0808 (  2517 PWs)   bands (ev):

    -9.2443  -7.3531  -5.9049  -0.3819   0.4906   1.5476   2.3391   3.1589
     4.7501   5.2431   6.4873   7.9835  12.3230  13.9687  16.9261  18.2679

     occupation numbers 
     1.0000   1.0000   1.0000   1.0000   1.0000   1.0000   1.0000   1.0000
     1.0000   1.0000   1.0000   1.0000   0.0000   0.0000   0.0000   0.0000

          k = 0.1875 0.3165 0.1347 (  2520 PWs)   bands (ev):

    -9.1984  -7.5354  -5.7248  -0.3505   0.4192   1.5556   2.3502   2.9598
     4.7703   5.3821   6.5039   8.0423  12.3420  13.7854  17.3429  18.3202

     occupation numbers 
     1.0000   1.0000   1.0000   1.0000   1.0000   1.0000   1.0000   1.0000
     1.0000   1.0000   1.0000   1.0000   0.0000   0.0000   0.0000   0.0000

          k = 0.1875 0.3165 0.1886 (  2531 PWs)   bands (ev):

    -9.1625  -7.6516  -5.6128  -0.3539   0.4511   1.4509   2.3415   2.9377
     4.7303   5.4692   6.5299   8.0896  12.3420  13.6749  17.7929  18.3819

     occupation numbers 
     1.0000   1.0000   1.0000   1.0000   1.0000   1.0000   1.0000   1.0000
     1.0000   1.0000   1.0000   1.0000   0.0000   0.0000   0.0000   0.0000

          k = 0.1875 0.4431 0.0269 (  2527 PWs)   bands (ev):

    -8.5600  -6.4689  -6.0082  -1.5234  -0.3982   1.3959   2.6162   3.3007
     4.3847   5.4441   5.7480   7.8607  11.2711  13.7919  16.4263  19.0157

     occupation numbers 
     1.0000   1.0000   1.0000   1.0000   1.0000   1.0000   1.0000   1.0000
     1.0000   1.0000   1.0000   1.0000   0.0000   0.0000   0.0000   0.0000

          k = 0.1875 0.4431 0.0808 (  2523 PWs)   bands (ev):

    -8.5451  -6.5476  -5.9565  -1.5555  -0.2537   1.5053   2.5394   2.8942
     4.7392   5.4036   5.6603   7.8327  11.4392  13.6882  16.6911  18.9961

     occupation numbers 
     1.0000   1.0000   1.0000   1.0000   1.0000   1.0000   1.0000   1.0000
     1.0000   1.0000   1.0000   1.0000   0.0000   0.0000   0.0000   0.0000

          k = 0.1875 0.4431 0.1347 (  2520 PWs)   bands (ev):

    -8.5232  -6.6416  -5.9010  -1.6071   0.0347   1.5550   2.2363   2.7508
     4.9790   5.3369   5.5964   7.8050  11.6773  13.5389  17.1859  18.9471

     occupation numbers 
     1.0000   1.0000   1.0000   1.0000   1.0000   1.0000   1.0000   1.0000
     1.0000   1.0000   1.0000   1.0000   0.0000   0.0000   0.0000   0.0000

          k = 0.1875 0.4431 0.1886 (  2512 PWs)   bands (ev):

    -8.5071  -6.7015  -5.8687  -1.6459   0.3807   1.2943   2.1522   2.7393
     5.0082   5.2805   5.6366   7.7916  11.8507  13.4275  17.8241  18.7059

     occupation numbers 
     1.0000   1.0000   1.0000   1.0000   1.0000   1.0000   1.0000   1.0000
     1.0000   1.0000   1.0000   1.0000   0.0000   0.0000   0.0000   0.0000

          k = 0.3125 0.3165 0.0269 (  2516 PWs)   bands (ev):

    -8.6271  -6.6032  -5.7199  -0.0576   0.5870   0.8683   1.6625   2.8976
     3.8644   4.9367   5.7384   7.0857  10.8260  13.8125  15.9039  18.7939

     occupation numbers 
     1.0000   1.0000   1.0000   1.0000   1.0000   1.0000   1.0000   1.0000
     1.0000   1.0000   1.0000   1.0000   0.0000   0.0000   0.0000   0.0000

          k = 0.3125 0.3165 0.0808 (  2516 PWs)   bands (ev):

    -8.6043  -6.7283  -5.6054  -0.0157   0.6297   0.7794   1.7256   2.6912
     4.0600   4.7710   5.9026   6.9753  10.9867  13.5830  16.1869  18.5582

     occupation numbers 
     1.0000   1.0000   1.0000   1.0000   1.0000   1.0000   1.0000   1.0000
     1.0000   1.0000   1.0000   1.0000   0.0000   0.0000   0.0000   0.0000

          k = 0.3125 0.3165 0.1347 (  2517 PWs)   bands (ev):

    -8.5697  -6.8757  -5.4752   0.0625   0.5246   0.8524   1.7608   2.4677
     4.1782   4.7218   6.0361   6.8348  11.2253  13.2541  16.7093  18.3521

     occupation numbers 
     1.0000   1.0000   1.0000   1.0000   1.0000   1.0000   1.0000   1.0000
     1.0000   1.0000   1.0000   1.0000   0.0000   0.0000   0.0000   0.0000

          k = 0.3125 0.3165 0.1886 (  2511 PWs)   bands (ev):

    -8.5433  -6.9688  -5.3961   0.1556   0.3878   0.9621   1.7614   2.3145
     4.1839   4.7844   6.0896   6.7491  11.4143  13.0048  17.3658  18.1075

     occupation numbers 
     1.0000   1.0000   1.0000   1.0000   1.0000   1.0000   1.0000   1.0000
     1.0000   1.0000   1.0000   1.0000   0.0000   0.0000   0.0000   0.0000

          k = 0.3125 0.4431 0.0269 (  2513 PWs)   bands (ev):

    -7.9705  -5.9536  -5.5978  -0.8265   0.1681   1.0092   1.8603   2.4295
     3.6708   4.8957   5.0704   6.7164   9.6048  13.8029  15.8162  17.7855

     occupation numbers 
     1.0000   1.0000   1.0000   1.0000   1.0000   1.0000   1.0000   1.0000
     1.0000   1.0000   1.0000   1.0000   0.3698   0.0000   0.0000   0.0000

          k = 0.3125 0.4431 0.0808 (  2510 PWs)   bands (ev):

    -7.9596  -6.0126  -5.5580  -0.8451   0.2266   1.0370   1.8734   2.3680
     3.7679   4.7763   5.1068   6.5150   9.9109  13.5171  16.0999  17.6826

     occupation numbers 
     1.0000   1.0000   1.0000   1.0000   1.0000   1.0000   1.0000   1.0000
     1.0000   1.0000   1.0000   1.0000   0.0272   0.0000   0.0000   0.0000

          k = 0.3125 0.4431 0.1347 (  2505 PWs)   bands (ev):

    -7.9438  -6.0830  -5.5151  -0.8741   0.3259   1.0720   1.8384   2.3528
     3.8623   4.6815   5.1019   6.2655  10.3561  13.0931  16.5607  17.5109

     occupation numbers 
     1.0000   1.0000   1.0000   1.0000   1.0000   1.0000   1.0000   1.0000
     1.0000   1.0000   1.0000   1.0000   0.0000   0.0000   0.0000   0.0000

          k = 0.3125 0.4431 0.1886 (  2515 PWs)   bands (ev):

    -7.9323  -6.1277  -5.4901  -0.8958   0.4115   1.0864   1.7903   2.3752
     3.8985   4.6556   5.0747   6.1073  10.7173  12.7451  16.9462  17.3951

     occupation numbers 
     1.0000   1.0000   1.0000   1.0000   1.0000   1.0000   1.0000   1.0000
     1.0000   1.0000   1.0000   1.0000   0.0000   0.0000   0.0000   0.0000

          k = 0.4375 0.4431 0.0269 (  2506 PWs)   bands (ev):

    -7.4236  -5.4837  -5.3388  -0.2097   0.0225   0.7318   1.1465   2.7250
     3.0156   3.9182   5.0203   6.1946   8.3428  14.1995  15.9841  16.6977

     occupation numbers 
     1.0000   1.0000   1.0000   1.0000   1.0000   1.0000   1.0000   1.0000
     1.0000   1.0000   1.0000   1.0000   1.0000   0.0000   0.0000   0.0000

          k = 0.4375 0.4431 0.0808 (  2499 PWs)   bands (ev):

    -7.4190  -5.5064  -5.3218  -0.2235  -0.0105   0.4718   1.5620   2.7466
     3.0986   3.9791   4.7986   5.8139   8.8432  13.7883  16.0701  16.4407

     occupation numbers 
     1.0000   1.0000   1.0000   1.0000   1.0000   1.0000   1.0000   1.0000
     1.0000   1.0000   1.0000   1.0000   0.9999   0.0000   0.0000   0.0000

          k = 0.4375 0.4431 0.1347 (  2490 PWs)   bands (ev):

    -7.4125  -5.5332  -5.3031  -0.2344  -0.0686   0.2970   2.0114   2.7537
     3.2603   4.0806   4.4457   5.3470   9.5118  13.1729  16.0563  16.1643

     occupation numbers 
     1.0000   1.0000   1.0000   1.0000   1.0000   1.0000   1.0000   1.0000
     1.0000   1.0000   1.0000   1.0000   0.5599   0.0000   0.0000   0.0000

          k = 0.4375 0.4431 0.1886 (  2499 PWs)   bands (ev):

    -7.4078  -5.5500  -5.2920  -0.2285  -0.1264   0.2152   2.3850   2.6921
     3.5184   3.8877   4.3793   4.9708  10.0519  12.6492  15.9543  16.0274

     occupation numbers 
     1.0000   1.0000   1.0000   1.0000   1.0000   1.0000   1.0000   1.0000
     1.0000   1.0000   1.0000   1.0000   0.0040   0.0000   0.0000   0.0000

          k = 0.1875 0.0633-0.0269 (  2530 PWs)   bands (ev):

   -10.4036  -8.2597  -6.7063   0.5822   1.2946   1.7901   3.5021   4.2672
     5.7443   6.0317   7.7870   9.0926  13.7747  14.9998  16.4073  16.8434

     occupation numbers 
     1.0000   1.0000   1.0000   1.0000   1.0000   1.0000   1.0000   1.0000
     1.0000   1.0000   1.0000   0.9901   0.0000   0.0000   0.0000   0.0000

          k = 0.1875 0.0633-0.0808 (  2532 PWs)   bands (ev):

   -10.3637  -8.4532  -6.4767   0.1291   1.2710   2.3014   3.5259   4.0918
     5.7201   6.0644   7.8397   9.2132  13.6073  14.9297  16.4057  16.6315

     occupation numbers 
     1.0000   1.0000   1.0000   1.0000   1.0000   1.0000   1.0000   1.0000
     1.0000   1.0000   1.0000   0.9557   0.0000   0.0000   0.0000   0.0000

          k = 0.1875 0.0633-0.1347 (  2530 PWs)   bands (ev):

   -10.3002  -8.6846  -6.1939  -0.3295   1.3214   2.7154   3.5540   3.9744
     5.6179   6.0440   7.9763   9.3846  13.3548  14.8323  16.2745  16.5080

     occupation numbers 
     1.0000   1.0000   1.0000   1.0000   1.0000   1.0000   1.0000   1.0000
     1.0000   1.0000   1.0000   0.7916   0.0000   0.0000   0.0000   0.0000

          k = 0.1875 0.0633-0.1886 (  2539 PWs)   bands (ev):

   -10.2483  -8.8347  -6.0078  -0.6036   1.3690   2.8732   3.5681   4.0237
     5.5324   5.9556   8.1143   9.5065  13.1646  14.7607  16.1236  16.5014

     occupation numbers 
     1.0000   1.0000   1.0000   1.0000   1.0000   1.0000   1.0000   1.0000
     1.0000   1.0000   1.0000   0.5708   0.0000   0.0000   0.0000   0.0000

          k = 0.3125 0.0633-0.0269 (  2518 PWs)   bands (ev):

    -9.6945  -7.5919  -6.3695  -0.8454   0.3078   1.3129   3.5737   3.8952
     4.9127   6.2498   6.8008   9.1907  12.7715  15.2751  16.8378  17.7313

     occupation numbers 
     1.0000   1.0000   1.0000   1.0000   1.0000   1.0000   1.0000   1.0000
     1.0000   1.0000   1.0000   0.9656   0.0000   0.0000   0.0000   0.0000

          k = 0.3125 0.0633-0.0808 (  2522 PWs)   bands (ev):

    -9.6625  -7.7555  -6.2009  -0.8099   0.1590   1.4449   3.2200   3.8971
     5.3746   6.1860   6.6834   9.2592  12.7485  15.2424  16.7624  17.7364

     occupation numbers 
     1.0000   1.0000   1.0000   1.0000   1.0000   1.0000   1.0000   1.0000
     1.0000   1.0000   1.0000   0.9284   0.0000   0.0000   0.0000   0.0000

          k = 0.3125 0.0633-0.1347 (  2527 PWs)   bands (ev):

    -9.6127  -7.9494  -6.0030  -0.7929   0.0934   1.4033   3.0512   3.9154
     5.7319   6.1133   6.5761   9.3547  12.6986  15.1876  16.6798  17.8084

     occupation numbers 
     1.0000   1.0000   1.0000   1.0000   1.0000   1.0000   1.0000   1.0000
     1.0000   1.0000   1.0000   0.8333   0.0000   0.0000   0.0000   0.0000

          k = 0.3125 0.0633-0.1886 (  2528 PWs)   bands (ev):

    -9.5734  -8.0735  -5.8789  -0.8134   0.1570   1.2128   3.0913   3.9298
     5.7704   6.0992   6.6076   9.4213  12.6510  15.1430  16.6338  17.9016

     occupation numbers 
     1.0000   1.0000   1.0000   1.0000   1.0000   1.0000   1.0000   1.0000
     1.0000   1.0000   1.0000   0.7327   0.0000   0.0000   0.0000   0.0000

          k = 0.4375 0.0633-0.0269 (  2530 PWs)   bands (ev):

    -8.9939  -6.8662  -6.3675  -1.9365  -0.7724   1.0480   3.4399   4.1929
     4.6787   6.0581   6.5323   9.2314  11.8460  15.4956  17.2035  17.9193

     occupation numbers 
     1.0000   1.0000   1.0000   1.0000   1.0000   1.0000   1.0000   1.0000
     1.0000   1.0000   1.0000   0.9461   0.0000   0.0000   0.0000   0.0000

          k = 0.4375 0.0633-0.0808 (  2531 PWs)   bands (ev):

    -8.9775  -6.9519  -6.3112  -1.9781  -0.6114   1.1909   2.7874   4.1909
     5.2487   5.8490   6.5156   9.2430  12.0128  15.4699  17.2241  17.9257

     occupation numbers 
     1.0000   1.0000   1.0000   1.0000   1.0000   1.0000   1.0000   1.0000
     1.0000   1.0000   1.0000   0.9392   0.0000   0.0000   0.0000   0.0000

          k = 0.4375 0.0633-0.1347 (  2525 PWs)   bands (ev):

    -8.9533  -7.0546  -6.2506  -2.0438  -0.2847   1.3052   2.1744   4.1974
     5.5477   5.7512   6.4897   9.2592  12.2402  15.4344  17.2453  17.9514

     occupation numbers 
     1.0000   1.0000   1.0000   1.0000   1.0000   1.0000   1.0000   1.0000
     1.0000   1.0000   1.0000   0.9283   0.0000   0.0000   0.0000   0.0000

          k = 0.4375 0.0633-0.1886 (  2520 PWs)   bands (ev):

    -8.9354  -7.1200  -6.2152  -2.0922   0.1201   1.0628   1.9813   4.2027
     5.3263   6.0369   6.4675   9.2705  12.3959  15.4098  17.2538  18.0358

     occupation numbers 
     1.0000   1.0000   1.0000   1.0000   1.0000   1.0000   1.0000   1.0000
     1.0000   1.0000   1.0000   0.9200   0.0000   0.0000   0.0000   0.0000

          k = 0.3125 0.1899-0.0269 (  2514 PWs)   bands (ev):

    -9.3069  -7.2304  -6.0993  -0.4657   0.5574   1.4660   2.3727   3.5044
     4.5284   5.2383   6.5498   7.9547  12.3949  14.0581  16.7195  18.5586

     occupation numbers 
     1.0000   1.0000   1.0000   1.0000   1.0000   1.0000   1.0000   1.0000
     1.0000   1.0000   1.0000   1.0000   0.0000   0.0000   0.0000   0.0000

          k = 0.3125 0.1899-0.0808 (  2517 PWs)   bands (ev):

    -9.2774  -7.3838  -5.9459  -0.4306   0.4443   1.5672   2.3969   3.1768
     4.7580   5.2561   6.5560   7.9867  12.4213  13.9174  16.9633  18.5880

     occupation numbers 
     1.0000   1.0000   1.0000   1.0000   1.0000   1.0000   1.0000   1.0000
     1.0000   1.0000   1.0000   1.0000   0.0000   0.0000   0.0000   0.0000

          k = 0.3125 0.1899-0.1347 (  2520 PWs)   bands (ev):

    -9.2319  -7.5653  -5.7672  -0.4077   0.3962   1.5605   2.4043   2.9793
     4.7844   5.4003   6.5604   8.0458  12.4416  13.7470  17.3845  18.6394

     occupation numbers 
     1.0000   1.0000   1.0000   1.0000   1.0000   1.0000   1.0000   1.0000
     1.0000   1.0000   1.0000   1.0000   0.0000   0.0000   0.0000   0.0000

          k = 0.3125 0.1899-0.1886 (  2531 PWs)   bands (ev):

    -9.1962  -7.6809  -5.6562  -0.4180   0.4505   1.4332   2.3977   2.9648
     4.7459   5.4874   6.5807   8.0928  12.4418  13.6452  17.8551  18.6482

     occupation numbers 
     1.0000   1.0000   1.0000   1.0000   1.0000   1.0000   1.0000   1.0000
     1.0000   1.0000   1.0000   1.0000   0.0000   0.0000   0.0000   0.0000

          k = 0.4375 0.1899-0.0269 (  2527 PWs)   bands (ev):

    -8.6337  -6.5359  -6.0781  -1.5136  -0.4263   1.4095   2.6525   3.3244
     4.3760   5.4361   5.8729   7.8595  11.4188  13.7206  16.4770  19.3289

     occupation numbers 
     1.0000   1.0000   1.0000   1.0000   1.0000   1.0000   1.0000   1.0000
     1.0000   1.0000   1.0000   1.0000   0.0000   0.0000   0.0000   0.0000

          k = 0.4375 0.1899-0.0808 (  2523 PWs)   bands (ev):

    -8.6188  -6.6144  -6.0266  -1.5481  -0.2771   1.5230   2.5557   2.9157
     4.7447   5.4182   5.7598   7.8373  11.5862  13.6290  16.7398  19.2821

     occupation numbers 
     1.0000   1.0000   1.0000   1.0000   1.0000   1.0000   1.0000   1.0000
     1.0000   1.0000   1.0000   1.0000   0.0000   0.0000   0.0000   0.0000

          k = 0.4375 0.1899-0.1347 (  2520 PWs)   bands (ev):

    -8.5970  -6.7083  -5.9712  -1.6031   0.0216   1.5688   2.2253   2.7896
     4.9871   5.3992   5.6465   7.8167  11.8230  13.4967  17.2302  19.1922

     occupation numbers 
     1.0000   1.0000   1.0000   1.0000   1.0000   1.0000   1.0000   1.0000
     1.0000   1.0000   1.0000   1.0000   0.0000   0.0000   0.0000   0.0000

          k = 0.4375 0.1899-0.1886 (  2512 PWs)   bands (ev):

    -8.5810  -6.7679  -5.9390  -1.6440   0.3873   1.2726   2.1559   2.7796
     5.0289   5.3424   5.6728   7.8076  11.9950  13.3977  17.8527  18.8119

     occupation numbers 
     1.0000   1.0000   1.0000   1.0000   1.0000   1.0000   1.0000   1.0000
     1.0000   1.0000   1.0000   1.0000   0.0000   0.0000   0.0000   0.0000

          k = 0.4375 0.3165-0.0269 (  2513 PWs)   bands (ev):

    -8.0100  -5.9859  -5.6318  -0.7810   0.1729   0.9739   1.8934   2.4391
     3.6322   4.9508   5.0843   6.6949   9.6775  13.7587  15.8109  17.8662

     occupation numbers 
     1.0000   1.0000   1.0000   1.0000   1.0000   1.0000   1.0000   1.0000
     1.0000   1.0000   1.0000   1.0000   0.2388   0.0000   0.0000   0.0000

          k = 0.4375 0.3165-0.0808 (  2510 PWs)   bands (ev):

    -7.9991  -6.0455  -5.5917  -0.8011   0.2372   1.0042   1.8935   2.3798
     3.7243   4.8138   5.1533   6.4939   9.9735  13.4842  16.0947  17.7654

     occupation numbers 
     1.0000   1.0000   1.0000   1.0000   1.0000   1.0000   1.0000   1.0000
     1.0000   1.0000   1.0000   1.0000   0.0123   0.0000   0.0000   0.0000

          k = 0.4375 0.3165-0.1347 (  2505 PWs)   bands (ev):

    -7.9832  -6.1164  -5.5485  -0.8322   0.3461   1.0489   1.8223   2.3796
     3.8090   4.7200   5.1723   6.2403  10.4050  13.0767  16.5566  17.5958

     occupation numbers 
     1.0000   1.0000   1.0000   1.0000   1.0000   1.0000   1.0000   1.0000
     1.0000   1.0000   1.0000   1.0000   0.0000   0.0000   0.0000   0.0000

          k = 0.4375 0.3165-0.1886 (  2515 PWs)   bands (ev):

    -7.9716  -6.1614  -5.5235  -0.8556   0.4397   1.0786   1.7376   2.4142
     3.8390   4.6959   5.1617   6.0763  10.7544  12.7429  16.9421  17.4878

     occupation numbers 
     1.0000   1.0000   1.0000   1.0000   1.0000   1.0000   1.0000   1.0000
     1.0000   1.0000   1.0000   1.0000   0.0000   0.0000   0.0000   0.0000

     the Fermi energy is     9.5408 ev

!    total energy              =     -93.91628039 Ry
     estimated scf accuracy    <          1.3E-13 Ry
     smearing contrib. (-TS)   =      -0.00252400 Ry
     internal energy E=F+TS    =     -93.91375639 Ry

     The total energy is F=E-TS. E is the sum of the following terms:
     one-electron contribution =       2.08683581 Ry
     hartree contribution      =      14.45743949 Ry
     xc contribution           =     -25.05965549 Ry
     ewald contribution        =     -70.97796355 Ry
     one-center paw contrib.   =     -14.42041266 Ry
      -> PAW hartree energy AE =       3.23290477 Ry
      -> PAW hartree energy PS =      -3.22468553 Ry
      -> PAW xc energy AE      =      -7.17004343 Ry
      -> PAW xc energy PS      =       2.35158891 Ry
      -> total E_H with PAW    =      14.46565873 Ry
      -> total E_XC with PAW   =     -29.87811000 Ry

     convergence has been achieved in  13 iterations

     Forces acting on atoms (cartesian axes, Ry/au):

     atom    1 type  2   force =     0.00000000    0.00000000    0.00041811
     atom    2 type  1   force =     0.00000000    0.00000000    0.00027571
     atom    3 type  2   force =     0.00000000    0.00000000    0.00018220
     atom    4 type  2   force =     0.00000000    0.00000000   -0.00077217
     atom    5 type  1   force =     0.00000000    0.00000000    0.00066384
     atom    6 type  1   force =     0.00000000    0.00000000   -0.00076769
     The non-local contrib.  to forces
     atom    1 type  2   force =     0.00000000    0.00000000    0.00613352
     atom    2 type  1   force =     0.00000000    0.00000000   -0.41408689
     atom    3 type  2   force =     0.00000000    0.00000000   -0.11782522
     atom    4 type  2   force =     0.00000000    0.00000000    0.13578479
     atom    5 type  1   force =     0.00000000    0.00000000    0.02165092
     atom    6 type  1   force =     0.00000000    0.00000000    0.42738620
     The ionic contribution  to forces
     atom    1 type  2   force =     0.00000000   -0.00000000   -0.08896101
     atom    2 type  1   force =     0.00000000   -0.00000000   -1.02376098
     atom    3 type  2   force =     0.00000000   -0.00000000   -0.01586637
     atom    4 type  2   force =    -0.00000000   -0.00000000   -0.05178636
     atom    5 type  1   force =    -0.00000000   -0.00000000    0.09393299
     atom    6 type  1   force =    -0.00000000   -0.00000000    1.08644173
     The local contribution  to forces
     atom    1 type  2   force =     0.00000000    0.00000000    0.08309994
     atom    2 type  1   force =    -0.00000000    0.00000000    1.41061145
     atom    3 type  2   force =     0.00000000   -0.00000000    0.13632376
     atom    4 type  2   force =    -0.00000000    0.00000000   -0.08724100
     atom    5 type  1   force =     0.00000000   -0.00000000   -0.11327161
     atom    6 type  1   force =     0.00000000    0.00000000   -1.48598213
     The core correction contribution to forces
     atom    1 type  2   force =    -0.00000000    0.00000000    0.00014464
     atom    2 type  1   force =    -0.00000000   -0.00000000    0.02751135
     atom    3 type  2   force =    -0.00000000   -0.00000000   -0.00245067
     atom    4 type  2   force =    -0.00000000    0.00000000    0.00247010
     atom    5 type  1   force =     0.00000000    0.00000000   -0.00164913
     atom    6 type  1   force =     0.00000000    0.00000000   -0.02861410
     The Hubbard contrib.    to forces
     atom    1 type  2   force =     0.00000000    0.00000000    0.00000000
     atom    2 type  1   force =     0.00000000    0.00000000    0.00000000
     atom    3 type  2   force =     0.00000000    0.00000000    0.00000000
     atom    4 type  2   force =     0.00000000    0.00000000    0.00000000
     atom    5 type  1   force =     0.00000000    0.00000000    0.00000000
     atom    6 type  1   force =     0.00000000    0.00000000    0.00000000
     The SCF correction term to forces
     atom    1 type  2   force =    -0.00000000   -0.00000000    0.00000035
     atom    2 type  1   force =    -0.00000000   -0.00000000    0.00000011
     atom    3 type  2   force =    -0.00000000   -0.00000000    0.00000003
     atom    4 type  2   force =     0.00000000    0.00000000   -0.00000037
     atom    5 type  1   force =    -0.00000000   -0.00000000   -0.00000001
     atom    6 type  1   force =     0.00000000    0.00000000   -0.00000006

     Total force =     0.001382     Total SCF correction =     0.000001


     Computing stress (Cartesian axis) and pressure

          total   stress  (Ry/bohr**3)                   (kbar)     P=      -49.34
  -0.00046220   0.00000000   0.00000000          -67.99        0.00        0.00
   0.00000000  -0.00000067   0.00000000            0.00       -0.10        0.00
   0.00000000   0.00000000  -0.00054344            0.00        0.00      -79.94

     kinetic stress (kbar)  16174.02      0.00      0.00
                                0.00  16203.20      0.00
                                0.00      0.00  15392.00

     local   stress (kbar)  -5044.54      0.00     -0.00
                                0.00  -5686.53     -0.00
                               -0.00     -0.00 -13673.94

     nonloc. stress (kbar)   5804.16      0.00      0.00
                                0.00   5808.92      0.00
                                0.00      0.00   6042.86

     hartree stress (kbar)   1946.95     -0.00      0.00
                               -0.00   2150.07      0.00
                                0.00      0.00   3468.29

     exc-cor stress (kbar)  -2175.34      0.00      0.00
                                0.00  -2175.34      0.00
                                0.00      0.00  -2175.34

     corecor stress (kbar)  -1679.07      0.00     -0.00
                                0.00  -1680.01     -0.00
                               -0.00     -0.00  -1706.95

     ewald   stress (kbar) -15094.17     -0.00      0.00
                               -0.00 -14620.41      0.00
                                0.00      0.00  -7426.88

     hubbard stress (kbar)      0.00      0.00      0.00
                                0.00      0.00      0.00
                                0.00      0.00      0.00

     DFT-D   stress (kbar)      0.00      0.00      0.00
                                0.00      0.00      0.00
                                0.00      0.00      0.00

     XDM     stress (kbar)      0.00      0.00      0.00
                                0.00      0.00      0.00
                                0.00      0.00      0.00

     dft-nl  stress (kbar)      0.00      0.00      0.00
                                0.00      0.00      0.00
                                0.00      0.00      0.00

     TS-vdW  stress (kbar)      0.00      0.00      0.00
                                0.00      0.00      0.00
                                0.00      0.00      0.00

     MDB     stress (kbar)      0.00      0.00      0.00
                                0.00      0.00      0.00
                                0.00      0.00      0.00

     3D-RISM stress (kbar)      0.00      0.00      0.00
                                0.00      0.00      0.00
                                0.00      0.00      0.00

     Energy error            =      2.9E-05 Ry
     Gradient error          =      7.7E-04 Ry/Bohr
     Cell gradient error     =      9.9E-02 kbar

     bfgs converged in   4 scf cycles and   3 bfgs steps
     (criteria: energy <  1.0E-04 Ry, force <  1.0E-03 Ry/Bohr, cell <  5.0E-01 kbar)

     End of BFGS Geometry Optimization

     Final enthalpy           =     -93.9162803850 Ry

     File /home/amin/Desktop/QE/Sample-1.bfgs deleted, as requested
Begin final coordinates
     new unit-cell volume =    281.12035 a.u.^3 (    41.65774 Ang^3 )
     density =      2.96689 g/cm^3

CELL_PARAMETERS (alat=  4.96997971)
   1.000000000   0.000000000   0.000000000
   0.000000000   0.987311855   0.000000000
   0.000000000   0.000000000   2.319391635

ATOMIC_POSITIONS (angstrom)
N                1.3150000000        1.2983150887        0.0032940333
B                1.3150000000        0.0000000000        0.8611111172
N                1.3150000000        0.0000000000        2.2110513645
N                0.0000000000        1.2983150887        3.8993611796
B                1.3150000000        1.2983150887        3.0547181228
B                0.0000000000        1.2983150887        5.2512641827
End final coordinates



     Writing config-only to output data dir /home/amin/Desktop/QE/Sample-1.save/ :
     XML data file

     Final scf calculation at the relaxed structure.
     The G-vectors are recalculated for the final unit cell
     Results may differ from those at the preceding step.

     Parallelization info
     --------------------
     sticks:   dense  smooth     PW     G-vecs:    dense   smooth      PW
     Min         125     125     36                 4973     4973     824
     Max         126     126     37                 4980     4980     829
     Sum         501     501    147                19903    19903    3303

     Using Slab Decomposition



     bravais-lattice index     =            6
     lattice parameter (alat)  =       4.9700  a.u.
     unit-cell volume          =     281.1203 (a.u.)^3
     number of atoms/cell      =            6
     number of atomic types    =            2
     number of electrons       =        24.00
     number of Kohn-Sham states=           16
     kinetic-energy cutoff     =      65.0000  Ry
     charge density cutoff     =     260.0000  Ry
     scf convergence threshold =      1.0E-11
     mixing beta               =       0.7000
     number of iterations used =            8  plain     mixing
     press convergence thresh. =      5.0E-01
     Exchange-correlation= LDA
                           (   1   1   0   0   0   0   0)

     celldm(1)=   4.969980  celldm(2)=   0.000000  celldm(3)=   2.319392
     celldm(4)=   0.000000  celldm(5)=   0.000000  celldm(6)=   0.000000

     crystal axes: (cart. coord. in units of alat)
               a(1) = (   1.000000   0.000000   0.000000 )  
               a(2) = (   0.000000   0.987312   0.000000 )  
               a(3) = (   0.000000   0.000000   2.319392 )  

     reciprocal axes: (cart. coord. in units 2 pi/alat)
               b(1) = (  1.000000  0.000000  0.000000 )  
               b(2) = (  0.000000  1.012851  0.000000 )  
               b(3) = (  0.000000  0.000000  0.431148 )  


     PseudoPot. # 1 for B  read from file:
     /home/amin/Desktop/QE/B.pz-n-kjpaw_psl.0.1.UPF
     MD5 check sum: c354f25e7b21c7d4006671951663ef11
     Pseudo is Projector augmented-wave + core cor, Zval =  3.0
     Generated using "atomic" code by A. Dal Corso  v.5.0.2 svn rev. 9415
     Shape of augmentation charge: BESSEL
     Using radial grid of 1059 points,  4 beta functions with: 
                l(1) =   0
                l(2) =   0
                l(3) =   1
                l(4) =   1
     Q(r) pseudized with 0 coefficients 


     PseudoPot. # 2 for N  read from file:
     /home/amin/Desktop/QE/N.pz-n-rrkjus_psl.0.1.UPF
     MD5 check sum: 5663b752f1eef59ba9d503062cb6a42c
     Pseudo is Ultrasoft + core correction, Zval =  5.0
     Generated using "atomic" code by A. Dal Corso  v.5.0.2 svn rev. 9415
     Using radial grid of 1085 points,  4 beta functions with: 
                l(1) =   0
                l(2) =   0
                l(3) =   1
                l(4) =   1
     Q(r) pseudized with 0 coefficients 


     atomic species   valence    mass     pseudopotential
     B                 3.00    10.81000     B ( 1.00)
     N                 5.00    14.00000     N ( 1.00)

      4 Sym. Ops. (no inversion) found


                                    s                        frac. trans.

      isym =  1     identity                                     

 cryst.   s( 1) = (     1          0          0      )
                  (     0          1          0      )
                  (     0          0          1      )

 cart.    s( 1) = (  1.0000000  0.0000000  0.0000000 )
                  (  0.0000000  1.0000000  0.0000000 )
                  (  0.0000000  0.0000000  1.0000000 )


      isym =  2     180 deg rotation - cart. axis [0,0,1]        

 cryst.   s( 2) = (    -1          0          0      )
                  (     0         -1          0      )
                  (     0          0          1      )

 cart.    s( 2) = ( -1.0000000  0.0000000  0.0000000 )
                  (  0.0000000 -1.0000000  0.0000000 )
                  (  0.0000000  0.0000000  1.0000000 )


      isym =  3     inv. 180 deg rotation - cart. axis [0,1,0]   

 cryst.   s( 3) = (     1          0          0      )
                  (     0         -1          0      )
                  (     0          0          1      )

 cart.    s( 3) = (  1.0000000  0.0000000  0.0000000 )
                  (  0.0000000 -1.0000000  0.0000000 )
                  (  0.0000000  0.0000000  1.0000000 )


      isym =  4     inv. 180 deg rotation - cart. axis [1,0,0]   

 cryst.   s( 4) = (    -1          0          0      )
                  (     0          1          0      )
                  (     0          0          1      )

 cart.    s( 4) = ( -1.0000000  0.0000000  0.0000000 )
                  (  0.0000000  1.0000000  0.0000000 )
                  (  0.0000000  0.0000000  1.0000000 )


     point group C_2v (mm2) 
     there are  4 classes
     the character table:

       E     C2    s_v   s_v' 
A_1    1.00  1.00  1.00  1.00
A_2    1.00  1.00 -1.00 -1.00
B_1    1.00 -1.00  1.00 -1.00
B_2    1.00 -1.00 -1.00  1.00

     the symmetry operations in each class and the name of the first element:

     E        1
          identity                                               
     C2       2
          180 deg rotation - cart. axis [0,0,1]                  
     s_v      4
          inv. 180 deg rotation - cart. axis [1,0,0]             
     s_v'     3
          inv. 180 deg rotation - cart. axis [0,1,0]             

   Cartesian axes

     site n.     atom                  positions (alat units)
         1        N      tau(   1) = (   0.5000000   0.4936559   0.0012525  )
         2        B      tau(   2) = (   0.5000000   0.0000000   0.3274187  )
         3        N      tau(   3) = (   0.5000000   0.0000000   0.8407039  )
         4        N      tau(   4) = (   0.0000000   0.4936559   1.4826468  )
         5        B      tau(   5) = (   0.5000000   0.4936559   1.1614898  )
         6        B      tau(   6) = (   0.0000000   0.4936559   1.9966784  )

   Crystallographic axes

     site n.     atom                  positions (cryst. coord.)
         1        N      tau(   1) = (  0.5000000  0.5000000  0.0005400  )
         2        B      tau(   2) = (  0.5000000  0.0000000  0.1411658  )
         3        N      tau(   3) = (  0.5000000  0.0000000  0.3624674  )
         4        N      tau(   4) = (  0.0000000  0.5000000  0.6392395  )
         5        B      tau(   5) = (  0.5000000  0.5000000  0.5007735  )
         6        B      tau(   6) = (  0.0000000  0.5000000  0.8608630  )

     number of k points=    64  Gaussian smearing, width (Ry)=  0.0200
                       cart. coord. in units 2pi/alat
        k(    1) = (   0.0625000   0.0633032   0.0269467), wk =   0.0312500
        k(    2) = (   0.0625000   0.0633032   0.0808402), wk =   0.0312500
        k(    3) = (   0.0625000   0.0633032   0.1347336), wk =   0.0312500
        k(    4) = (   0.0625000   0.0633032   0.1886270), wk =   0.0312500
        k(    5) = (   0.0625000   0.1899096   0.0269467), wk =   0.0312500
        k(    6) = (   0.0625000   0.1899096   0.0808402), wk =   0.0312500
        k(    7) = (   0.0625000   0.1899096   0.1347336), wk =   0.0312500
        k(    8) = (   0.0625000   0.1899096   0.1886270), wk =   0.0312500
        k(    9) = (   0.0625000   0.3165160   0.0269467), wk =   0.0312500
        k(   10) = (   0.0625000   0.3165160   0.0808402), wk =   0.0312500
        k(   11) = (   0.0625000   0.3165160   0.1347336), wk =   0.0312500
        k(   12) = (   0.0625000   0.3165160   0.1886270), wk =   0.0312500
        k(   13) = (   0.0625000   0.4431224   0.0269467), wk =   0.0312500
        k(   14) = (   0.0625000   0.4431224   0.0808402), wk =   0.0312500
        k(   15) = (   0.0625000   0.4431224   0.1347336), wk =   0.0312500
        k(   16) = (   0.0625000   0.4431224   0.1886270), wk =   0.0312500
        k(   17) = (   0.1875000   0.1899096   0.0269467), wk =   0.0312500
        k(   18) = (   0.1875000   0.1899096   0.0808402), wk =   0.0312500
        k(   19) = (   0.1875000   0.1899096   0.1347336), wk =   0.0312500
        k(   20) = (   0.1875000   0.1899096   0.1886270), wk =   0.0312500
        k(   21) = (   0.1875000   0.3165160   0.0269467), wk =   0.0312500
        k(   22) = (   0.1875000   0.3165160   0.0808402), wk =   0.0312500
        k(   23) = (   0.1875000   0.3165160   0.1347336), wk =   0.0312500
        k(   24) = (   0.1875000   0.3165160   0.1886270), wk =   0.0312500
        k(   25) = (   0.1875000   0.4431224   0.0269467), wk =   0.0312500
        k(   26) = (   0.1875000   0.4431224   0.0808402), wk =   0.0312500
        k(   27) = (   0.1875000   0.4431224   0.1347336), wk =   0.0312500
        k(   28) = (   0.1875000   0.4431224   0.1886270), wk =   0.0312500
        k(   29) = (   0.3125000   0.3165160   0.0269467), wk =   0.0312500
        k(   30) = (   0.3125000   0.3165160   0.0808402), wk =   0.0312500
        k(   31) = (   0.3125000   0.3165160   0.1347336), wk =   0.0312500
        k(   32) = (   0.3125000   0.3165160   0.1886270), wk =   0.0312500
        k(   33) = (   0.3125000   0.4431224   0.0269467), wk =   0.0312500
        k(   34) = (   0.3125000   0.4431224   0.0808402), wk =   0.0312500
        k(   35) = (   0.3125000   0.4431224   0.1347336), wk =   0.0312500
        k(   36) = (   0.3125000   0.4431224   0.1886270), wk =   0.0312500
        k(   37) = (   0.4375000   0.4431224   0.0269467), wk =   0.0312500
        k(   38) = (   0.4375000   0.4431224   0.0808402), wk =   0.0312500
        k(   39) = (   0.4375000   0.4431224   0.1347336), wk =   0.0312500
        k(   40) = (   0.4375000   0.4431224   0.1886270), wk =   0.0312500
        k(   41) = (   0.1875000   0.0633032  -0.0269467), wk =   0.0312500
        k(   42) = (   0.1875000   0.0633032  -0.0808402), wk =   0.0312500
        k(   43) = (   0.1875000   0.0633032  -0.1347336), wk =   0.0312500
        k(   44) = (   0.1875000   0.0633032  -0.1886270), wk =   0.0312500
        k(   45) = (   0.3125000   0.0633032  -0.0269467), wk =   0.0312500
        k(   46) = (   0.3125000   0.0633032  -0.0808402), wk =   0.0312500
        k(   47) = (   0.3125000   0.0633032  -0.1347336), wk =   0.0312500
        k(   48) = (   0.3125000   0.0633032  -0.1886270), wk =   0.0312500
        k(   49) = (   0.4375000   0.0633032  -0.0269467), wk =   0.0312500
        k(   50) = (   0.4375000   0.0633032  -0.0808402), wk =   0.0312500
        k(   51) = (   0.4375000   0.0633032  -0.1347336), wk =   0.0312500
        k(   52) = (   0.4375000   0.0633032  -0.1886270), wk =   0.0312500
        k(   53) = (   0.3125000   0.1899096  -0.0269467), wk =   0.0312500
        k(   54) = (   0.3125000   0.1899096  -0.0808402), wk =   0.0312500
        k(   55) = (   0.3125000   0.1899096  -0.1347336), wk =   0.0312500
        k(   56) = (   0.3125000   0.1899096  -0.1886270), wk =   0.0312500
        k(   57) = (   0.4375000   0.1899096  -0.0269467), wk =   0.0312500
        k(   58) = (   0.4375000   0.1899096  -0.0808402), wk =   0.0312500
        k(   59) = (   0.4375000   0.1899096  -0.1347336), wk =   0.0312500
        k(   60) = (   0.4375000   0.1899096  -0.1886270), wk =   0.0312500
        k(   61) = (   0.4375000   0.3165160  -0.0269467), wk =   0.0312500
        k(   62) = (   0.4375000   0.3165160  -0.0808402), wk =   0.0312500
        k(   63) = (   0.4375000   0.3165160  -0.1347336), wk =   0.0312500
        k(   64) = (   0.4375000   0.3165160  -0.1886270), wk =   0.0312500

                       cryst. coord.
        k(    1) = (   0.0625000   0.0625000   0.0625000), wk =   0.0312500
        k(    2) = (   0.0625000   0.0625000   0.1875000), wk =   0.0312500
        k(    3) = (   0.0625000   0.0625000   0.3125000), wk =   0.0312500
        k(    4) = (   0.0625000   0.0625000   0.4375000), wk =   0.0312500
        k(    5) = (   0.0625000   0.1875000   0.0625000), wk =   0.0312500
        k(    6) = (   0.0625000   0.1875000   0.1875000), wk =   0.0312500
        k(    7) = (   0.0625000   0.1875000   0.3125000), wk =   0.0312500
        k(    8) = (   0.0625000   0.1875000   0.4375000), wk =   0.0312500
        k(    9) = (   0.0625000   0.3125000   0.0625000), wk =   0.0312500
        k(   10) = (   0.0625000   0.3125000   0.1875000), wk =   0.0312500
        k(   11) = (   0.0625000   0.3125000   0.3125000), wk =   0.0312500
        k(   12) = (   0.0625000   0.3125000   0.4375000), wk =   0.0312500
        k(   13) = (   0.0625000   0.4375000   0.0625000), wk =   0.0312500
        k(   14) = (   0.0625000   0.4375000   0.1875000), wk =   0.0312500
        k(   15) = (   0.0625000   0.4375000   0.3125000), wk =   0.0312500
        k(   16) = (   0.0625000   0.4375000   0.4375000), wk =   0.0312500
        k(   17) = (   0.1875000   0.1875000   0.0625000), wk =   0.0312500
        k(   18) = (   0.1875000   0.1875000   0.1875000), wk =   0.0312500
        k(   19) = (   0.1875000   0.1875000   0.3125000), wk =   0.0312500
        k(   20) = (   0.1875000   0.1875000   0.4375000), wk =   0.0312500
        k(   21) = (   0.1875000   0.3125000   0.0625000), wk =   0.0312500
        k(   22) = (   0.1875000   0.3125000   0.1875000), wk =   0.0312500
        k(   23) = (   0.1875000   0.3125000   0.3125000), wk =   0.0312500
        k(   24) = (   0.1875000   0.3125000   0.4375000), wk =   0.0312500
        k(   25) = (   0.1875000   0.4375000   0.0625000), wk =   0.0312500
        k(   26) = (   0.1875000   0.4375000   0.1875000), wk =   0.0312500
        k(   27) = (   0.1875000   0.4375000   0.3125000), wk =   0.0312500
        k(   28) = (   0.1875000   0.4375000   0.4375000), wk =   0.0312500
        k(   29) = (   0.3125000   0.3125000   0.0625000), wk =   0.0312500
        k(   30) = (   0.3125000   0.3125000   0.1875000), wk =   0.0312500
        k(   31) = (   0.3125000   0.3125000   0.3125000), wk =   0.0312500
        k(   32) = (   0.3125000   0.3125000   0.4375000), wk =   0.0312500
        k(   33) = (   0.3125000   0.4375000   0.0625000), wk =   0.0312500
        k(   34) = (   0.3125000   0.4375000   0.1875000), wk =   0.0312500
        k(   35) = (   0.3125000   0.4375000   0.3125000), wk =   0.0312500
        k(   36) = (   0.3125000   0.4375000   0.4375000), wk =   0.0312500
        k(   37) = (   0.4375000   0.4375000   0.0625000), wk =   0.0312500
        k(   38) = (   0.4375000   0.4375000   0.1875000), wk =   0.0312500
        k(   39) = (   0.4375000   0.4375000   0.3125000), wk =   0.0312500
        k(   40) = (   0.4375000   0.4375000   0.4375000), wk =   0.0312500
        k(   41) = (   0.1875000   0.0625000  -0.0625000), wk =   0.0312500
        k(   42) = (   0.1875000   0.0625000  -0.1875000), wk =   0.0312500
        k(   43) = (   0.1875000   0.0625000  -0.3125000), wk =   0.0312500
        k(   44) = (   0.1875000   0.0625000  -0.4375000), wk =   0.0312500
        k(   45) = (   0.3125000   0.0625000  -0.0625000), wk =   0.0312500
        k(   46) = (   0.3125000   0.0625000  -0.1875000), wk =   0.0312500
        k(   47) = (   0.3125000   0.0625000  -0.3125000), wk =   0.0312500
        k(   48) = (   0.3125000   0.0625000  -0.4375000), wk =   0.0312500
        k(   49) = (   0.4375000   0.0625000  -0.0625000), wk =   0.0312500
        k(   50) = (   0.4375000   0.0625000  -0.1875000), wk =   0.0312500
        k(   51) = (   0.4375000   0.0625000  -0.3125000), wk =   0.0312500
        k(   52) = (   0.4375000   0.0625000  -0.4375000), wk =   0.0312500
        k(   53) = (   0.3125000   0.1875000  -0.0625000), wk =   0.0312500
        k(   54) = (   0.3125000   0.1875000  -0.1875000), wk =   0.0312500
        k(   55) = (   0.3125000   0.1875000  -0.3125000), wk =   0.0312500
        k(   56) = (   0.3125000   0.1875000  -0.4375000), wk =   0.0312500
        k(   57) = (   0.4375000   0.1875000  -0.0625000), wk =   0.0312500
        k(   58) = (   0.4375000   0.1875000  -0.1875000), wk =   0.0312500
        k(   59) = (   0.4375000   0.1875000  -0.3125000), wk =   0.0312500
        k(   60) = (   0.4375000   0.1875000  -0.4375000), wk =   0.0312500
        k(   61) = (   0.4375000   0.3125000  -0.0625000), wk =   0.0312500
        k(   62) = (   0.4375000   0.3125000  -0.1875000), wk =   0.0312500
        k(   63) = (   0.4375000   0.3125000  -0.3125000), wk =   0.0312500
        k(   64) = (   0.4375000   0.3125000  -0.4375000), wk =   0.0312500

     Dense  grid:    19903 G-vectors     FFT dimensions: (  25,  25,  60)

     Dynamical RAM for                 wfc:       0.15 MB

     Dynamical RAM for     wfc (w. buffer):       0.15 MB

     Dynamical RAM for           str. fact:       0.15 MB

     Dynamical RAM for           local pot:       0.08 MB

     Dynamical RAM for          nlocal pot:       0.46 MB

     Dynamical RAM for                qrad:       1.48 MB

     Dynamical RAM for          rho,v,vnew:       0.44 MB

     Dynamical RAM for               rhoin:       0.15 MB

     Dynamical RAM for           G-vectors:       0.32 MB

     Dynamical RAM for          h,s,v(r/c):       0.05 MB

     Dynamical RAM for          <psi|beta>:       0.01 MB

     Dynamical RAM for                 psi:       0.30 MB

     Dynamical RAM for                hpsi:       0.30 MB

     Dynamical RAM for                spsi:       0.30 MB

     Dynamical RAM for      wfcinit/wfcrot:       0.47 MB

     Dynamical RAM for           addusdens:       3.50 MB

     Dynamical RAM for          addusforce:       3.84 MB

     Dynamical RAM for         addusstress:       3.80 MB

     Estimated static dynamical RAM per process >       3.81 MB

     Estimated max dynamical RAM per process >       7.65 MB

     Estimated total dynamical RAM >      30.62 MB

     Check: negative core charge=   -0.000018

     Initial potential from superposition of free atoms

     starting charge      23.9993, renormalised to      24.0000
     Starting wfcs are   24 randomized atomic wfcs
     Checking if some PAW data can be deallocated... 
       PAW data deallocated on    1 nodes for type:  1

     total cpu time spent up to now is      256.8 secs

     per-process dynamical memory:    16.6 Mb

     Self-consistent Calculation

     iteration #  1     ecut=    65.00 Ry     beta= 0.70
     Davidson diagonalization with overlap

---- Real-time Memory Report at c_bands before calling an iterative solver
            44 MiB given to the printing process from OS
            16 MiB allocation reported by mallinfo(arena+hblkhd)
          6826 MiB available memory on the node where the printing process lives
------------------
     c_bands:  3 eigenvalues not converged
     c_bands:  2 eigenvalues not converged
     c_bands:  2 eigenvalues not converged
     c_bands:  2 eigenvalues not converged
     c_bands:  4 eigenvalues not converged
     c_bands:  3 eigenvalues not converged
     c_bands:  3 eigenvalues not converged
     c_bands:  4 eigenvalues not converged
     c_bands:  3 eigenvalues not converged
     c_bands:  3 eigenvalues not converged
     c_bands:  3 eigenvalues not converged
     c_bands:  3 eigenvalues not converged
     c_bands:  3 eigenvalues not converged
     c_bands:  3 eigenvalues not converged
     c_bands:  3 eigenvalues not converged
     c_bands:  3 eigenvalues not converged
     c_bands:  4 eigenvalues not converged
     c_bands:  3 eigenvalues not converged
     c_bands:  3 eigenvalues not converged
     c_bands:  3 eigenvalues not converged
     c_bands:  2 eigenvalues not converged
     c_bands:  3 eigenvalues not converged
     c_bands:  2 eigenvalues not converged
     c_bands:  2 eigenvalues not converged
     c_bands:  2 eigenvalues not converged
     c_bands:  2 eigenvalues not converged
     c_bands:  3 eigenvalues not converged
     c_bands:  3 eigenvalues not converged
     c_bands:  2 eigenvalues not converged
     c_bands:  3 eigenvalues not converged
     c_bands:  3 eigenvalues not converged
     c_bands:  2 eigenvalues not converged
     c_bands:  2 eigenvalues not converged
     c_bands:  2 eigenvalues not converged
     c_bands:  2 eigenvalues not converged
     c_bands:  2 eigenvalues not converged
     c_bands:  3 eigenvalues not converged
     c_bands:  3 eigenvalues not converged
     c_bands:  2 eigenvalues not converged
     c_bands:  2 eigenvalues not converged
     c_bands:  3 eigenvalues not converged
     c_bands:  3 eigenvalues not converged
     c_bands:  4 eigenvalues not converged
     c_bands:  2 eigenvalues not converged
     c_bands:  3 eigenvalues not converged
     c_bands:  3 eigenvalues not converged
     c_bands:  3 eigenvalues not converged
     c_bands:  3 eigenvalues not converged
     c_bands:  3 eigenvalues not converged
     c_bands:  3 eigenvalues not converged
     c_bands:  3 eigenvalues not converged
     c_bands:  3 eigenvalues not converged
     c_bands:  2 eigenvalues not converged
     c_bands:  2 eigenvalues not converged
     c_bands:  2 eigenvalues not converged
     c_bands:  3 eigenvalues not converged
     c_bands:  2 eigenvalues not converged
     c_bands:  2 eigenvalues not converged
     c_bands:  3 eigenvalues not converged
     c_bands:  3 eigenvalues not converged
     c_bands:  2 eigenvalues not converged
     c_bands:  2 eigenvalues not converged
     c_bands:  2 eigenvalues not converged
     c_bands:  2 eigenvalues not converged
     ethr =  1.00E-06,  avg # of iterations = 20.0

     total cpu time spent up to now is      286.2 secs

     total energy              =     -93.42121769 Ry
     estimated scf accuracy    <       1.19864096 Ry

     iteration #  2     ecut=    65.00 Ry     beta= 0.70
     Davidson diagonalization with overlap

---- Real-time Memory Report at c_bands before calling an iterative solver
            44 MiB given to the printing process from OS
            16 MiB allocation reported by mallinfo(arena+hblkhd)
          6815 MiB available memory on the node where the printing process lives
------------------
     ethr =  4.99E-03,  avg # of iterations =  3.2

     total cpu time spent up to now is      291.6 secs

     total energy              =     -93.13212769 Ry
     estimated scf accuracy    <       3.68347182 Ry

     iteration #  3     ecut=    65.00 Ry     beta= 0.70
     Davidson diagonalization with overlap

---- Real-time Memory Report at c_bands before calling an iterative solver
            44 MiB given to the printing process from OS
            16 MiB allocation reported by mallinfo(arena+hblkhd)
          6733 MiB available memory on the node where the printing process lives
------------------
     ethr =  4.99E-03,  avg # of iterations =  2.0

     total cpu time spent up to now is      293.9 secs

     total energy              =     -93.86794222 Ry
     estimated scf accuracy    <       0.28294369 Ry

     iteration #  4     ecut=    65.00 Ry     beta= 0.70
     Davidson diagonalization with overlap

---- Real-time Memory Report at c_bands before calling an iterative solver
            44 MiB given to the printing process from OS
            16 MiB allocation reported by mallinfo(arena+hblkhd)
          6731 MiB available memory on the node where the printing process lives
------------------
     ethr =  1.18E-03,  avg # of iterations =  1.6

     total cpu time spent up to now is      295.9 secs

     total energy              =     -93.89657215 Ry
     estimated scf accuracy    <       0.02179481 Ry

     iteration #  5     ecut=    65.00 Ry     beta= 0.70
     Davidson diagonalization with overlap

---- Real-time Memory Report at c_bands before calling an iterative solver
            44 MiB given to the printing process from OS
            16 MiB allocation reported by mallinfo(arena+hblkhd)
          6737 MiB available memory on the node where the printing process lives
------------------
     ethr =  9.08E-05,  avg # of iterations =  8.6

     total cpu time spent up to now is      301.8 secs

     total energy              =     -93.91534005 Ry
     estimated scf accuracy    <       0.01215686 Ry

     iteration #  6     ecut=    65.00 Ry     beta= 0.70
     Davidson diagonalization with overlap

---- Real-time Memory Report at c_bands before calling an iterative solver
            44 MiB given to the printing process from OS
            16 MiB allocation reported by mallinfo(arena+hblkhd)
          6726 MiB available memory on the node where the printing process lives
------------------
     ethr =  5.07E-05,  avg # of iterations =  2.5

     total cpu time spent up to now is      304.5 secs

     total energy              =     -93.91484816 Ry
     estimated scf accuracy    <       0.00408049 Ry

     iteration #  7     ecut=    65.00 Ry     beta= 0.70
     Davidson diagonalization with overlap

---- Real-time Memory Report at c_bands before calling an iterative solver
            44 MiB given to the printing process from OS
            16 MiB allocation reported by mallinfo(arena+hblkhd)
          6737 MiB available memory on the node where the printing process lives
------------------
     c_bands:  1 eigenvalues not converged
     ethr =  1.70E-05,  avg # of iterations =  7.3

     total cpu time spent up to now is      312.2 secs

     total energy              =     -93.91590181 Ry
     estimated scf accuracy    <       0.00204282 Ry

     iteration #  8     ecut=    65.00 Ry     beta= 0.70
     Davidson diagonalization with overlap

---- Real-time Memory Report at c_bands before calling an iterative solver
            44 MiB given to the printing process from OS
            16 MiB allocation reported by mallinfo(arena+hblkhd)
          6670 MiB available memory on the node where the printing process lives
------------------
     ethr =  8.51E-06,  avg # of iterations =  3.0

     total cpu time spent up to now is      315.3 secs

     total energy              =     -93.91613536 Ry
     estimated scf accuracy    <       0.00010178 Ry

     iteration #  9     ecut=    65.00 Ry     beta= 0.70
     Davidson diagonalization with overlap

---- Real-time Memory Report at c_bands before calling an iterative solver
            44 MiB given to the printing process from OS
            16 MiB allocation reported by mallinfo(arena+hblkhd)
          6669 MiB available memory on the node where the printing process lives
------------------
     c_bands:  1 eigenvalues not converged
     c_bands:  1 eigenvalues not converged
     c_bands:  1 eigenvalues not converged
     c_bands:  1 eigenvalues not converged
     ethr =  4.24E-07,  avg # of iterations =  9.2

     total cpu time spent up to now is      322.7 secs

     total energy              =     -93.91622767 Ry
     estimated scf accuracy    <       0.00004429 Ry

     iteration # 10     ecut=    65.00 Ry     beta= 0.70
     Davidson diagonalization with overlap

---- Real-time Memory Report at c_bands before calling an iterative solver
            44 MiB given to the printing process from OS
            16 MiB allocation reported by mallinfo(arena+hblkhd)
          6678 MiB available memory on the node where the printing process lives
------------------
     c_bands:  1 eigenvalues not converged
     ethr =  1.85E-07,  avg # of iterations =  2.5

     total cpu time spent up to now is      326.2 secs

     total energy              =     -93.91622967 Ry
     estimated scf accuracy    <       0.00002015 Ry

     iteration # 11     ecut=    65.00 Ry     beta= 0.70
     Davidson diagonalization with overlap

---- Real-time Memory Report at c_bands before calling an iterative solver
            44 MiB given to the printing process from OS
            16 MiB allocation reported by mallinfo(arena+hblkhd)
          6678 MiB available memory on the node where the printing process lives
------------------
     ethr =  8.39E-08,  avg # of iterations =  2.2

     total cpu time spent up to now is      328.7 secs

     total energy              =     -93.91622906 Ry
     estimated scf accuracy    <       0.00000504 Ry

     iteration # 12     ecut=    65.00 Ry     beta= 0.70
     Davidson diagonalization with overlap

---- Real-time Memory Report at c_bands before calling an iterative solver
            44 MiB given to the printing process from OS
            16 MiB allocation reported by mallinfo(arena+hblkhd)
          6678 MiB available memory on the node where the printing process lives
------------------
     ethr =  2.10E-08,  avg # of iterations =  4.6

     total cpu time spent up to now is      333.0 secs

     total energy              =     -93.91623158 Ry
     estimated scf accuracy    <       0.00000167 Ry

     iteration # 13     ecut=    65.00 Ry     beta= 0.70
     Davidson diagonalization with overlap

---- Real-time Memory Report at c_bands before calling an iterative solver
            44 MiB given to the printing process from OS
            16 MiB allocation reported by mallinfo(arena+hblkhd)
          6677 MiB available memory on the node where the printing process lives
------------------
     ethr =  6.94E-09,  avg # of iterations =  2.3

     total cpu time spent up to now is      335.7 secs

     total energy              =     -93.91623173 Ry
     estimated scf accuracy    <       0.00000031 Ry

     iteration # 14     ecut=    65.00 Ry     beta= 0.70
     Davidson diagonalization with overlap

---- Real-time Memory Report at c_bands before calling an iterative solver
            44 MiB given to the printing process from OS
            16 MiB allocation reported by mallinfo(arena+hblkhd)
          6675 MiB available memory on the node where the printing process lives
------------------
     ethr =  1.27E-09,  avg # of iterations =  4.0

     total cpu time spent up to now is      340.4 secs

     total energy              =     -93.91623185 Ry
     estimated scf accuracy    <       0.00000003 Ry

     iteration # 15     ecut=    65.00 Ry     beta= 0.70
     Davidson diagonalization with overlap

---- Real-time Memory Report at c_bands before calling an iterative solver
            44 MiB given to the printing process from OS
            16 MiB allocation reported by mallinfo(arena+hblkhd)
          6755 MiB available memory on the node where the printing process lives
------------------
     ethr =  1.38E-10,  avg # of iterations =  4.8

     total cpu time spent up to now is      347.3 secs

     total energy              =     -93.91623187 Ry
     estimated scf accuracy    <          1.0E-09 Ry

     iteration # 16     ecut=    65.00 Ry     beta= 0.70
     Davidson diagonalization with overlap

---- Real-time Memory Report at c_bands before calling an iterative solver
            44 MiB given to the printing process from OS
            16 MiB allocation reported by mallinfo(arena+hblkhd)
          6914 MiB available memory on the node where the printing process lives
------------------
     ethr =  4.21E-12,  avg # of iterations =  7.4

     total cpu time spent up to now is      356.8 secs

     total energy              =     -93.91623187 Ry
     estimated scf accuracy    <          4.1E-10 Ry

     iteration # 17     ecut=    65.00 Ry     beta= 0.70
     Davidson diagonalization with overlap

---- Real-time Memory Report at c_bands before calling an iterative solver
            44 MiB given to the printing process from OS
            16 MiB allocation reported by mallinfo(arena+hblkhd)
          7031 MiB available memory on the node where the printing process lives
------------------
     ethr =  1.69E-12,  avg # of iterations =  2.2

     total cpu time spent up to now is      361.0 secs

     total energy              =     -93.91623187 Ry
     estimated scf accuracy    <          6.9E-11 Ry

     iteration # 18     ecut=    65.00 Ry     beta= 0.70
     Davidson diagonalization with overlap

---- Real-time Memory Report at c_bands before calling an iterative solver
            44 MiB given to the printing process from OS
            16 MiB allocation reported by mallinfo(arena+hblkhd)
          7029 MiB available memory on the node where the printing process lives
------------------
     ethr =  2.89E-13,  avg # of iterations =  4.1

     total cpu time spent up to now is      366.2 secs

     End of self-consistent calculation

          k = 0.0625 0.0633 0.0269 (  2487 PWs)   bands (ev):

   -10.8035  -8.6369  -6.9676   0.6686   1.7850   3.0558   3.2636   5.4863
     5.6386   6.5797   8.8296   9.0145  12.9273  15.0366  16.0181  16.5196

     occupation numbers 
     1.0000   1.0000   1.0000   1.0000   1.0000   1.0000   1.0000   1.0000
     1.0000   1.0000   0.9999   0.9969   0.0000   0.0000   0.0000   0.0000

          k = 0.0625 0.0633 0.0808 (  2484 PWs)   bands (ev):

   -10.7609  -8.8407  -6.7151  -0.0049   2.5262   3.0966   3.3111   5.3258
     5.5441   6.4315   8.9924   9.1578  12.9199  15.0429  15.8481  16.2793

     occupation numbers 
     1.0000   1.0000   1.0000   1.0000   1.0000   1.0000   1.0000   1.0000
     1.0000   1.0000   0.9978   0.9767   0.0000   0.0000   0.0000   0.0000

          k = 0.0625 0.0633 0.1347 (  2490 PWs)   bands (ev):

   -10.6923  -9.0851  -6.3986  -0.5900   3.0442   3.2334   3.5435   5.0766
     5.4198   6.1497   9.2289   9.3663  12.8991  15.0514  15.5167  16.0436

     occupation numbers 
     1.0000   1.0000   1.0000   1.0000   1.0000   1.0000   1.0000   1.0000
     1.0000   1.0000   0.9475   0.8178   0.0000   0.0000   0.0000   0.0000

          k = 0.0625 0.0633 0.1886 (  2483 PWs)   bands (ev):

   -10.6356  -9.2446  -6.1861  -0.9302   3.1209   3.3183   4.1240   4.7697
     5.3449   5.8762   9.4040   9.5169  12.8747  15.0600  15.2656  15.7775

     occupation numbers 
     1.0000   1.0000   1.0000   1.0000   1.0000   1.0000   1.0000   1.0000
     1.0000   1.0000   0.7615   0.5495   0.0000   0.0000   0.0000   0.0000

          k = 0.0625 0.1899 0.0269 (  2494 PWs)   bands (ev):

   -10.3871  -8.2434  -6.6849   0.6491   1.3400   1.8742   3.3346   4.3183
     5.6815   6.0158   7.7972   8.9806  13.6051  15.0546  16.2846  16.6749

     occupation numbers 
     1.0000   1.0000   1.0000   1.0000   1.0000   1.0000   1.0000   1.0000
     1.0000   1.0000   1.0000   0.9982   0.0000   0.0000   0.0000   0.0000

          k = 0.0625 0.1899 0.0808 (  2496 PWs)   bands (ev):

   -10.3471  -8.4372  -6.4546   0.1611   1.3842   2.3572   3.3619   4.1417
     5.6222   6.0624   7.8605   9.1083  13.4612  14.9626  16.2439  16.4807

     occupation numbers 
     1.0000   1.0000   1.0000   1.0000   1.0000   1.0000   1.0000   1.0000
     1.0000   1.0000   1.0000   0.9877   0.0000   0.0000   0.0000   0.0000

          k = 0.0625 0.1899 0.1347 (  2500 PWs)   bands (ev):

   -10.2834  -8.6689  -6.1705  -0.3084   1.4478   2.7870   3.3981   4.0009
     5.5121   6.0329   8.0047   9.2910  13.2408  14.8354  16.0416  16.3997

     occupation numbers 
     1.0000   1.0000   1.0000   1.0000   1.0000   1.0000   1.0000   1.0000
     1.0000   1.0000   1.0000   0.9030   0.0000   0.0000   0.0000   0.0000

          k = 0.0625 0.1899 0.1886 (  2504 PWs)   bands (ev):

   -10.2313  -8.8193  -5.9834  -0.5864   1.4975   2.9728   3.4140   4.0193
     5.4342   5.9340   8.1429   9.4215  13.0722  14.7435  15.8772  16.3869

     occupation numbers 
     1.0000   1.0000   1.0000   1.0000   1.0000   1.0000   1.0000   1.0000
     1.0000   1.0000   1.0000   0.7324   0.0000   0.0000   0.0000   0.0000

          k = 0.0625 0.3165 0.0269 (  2494 PWs)   bands (ev):

    -9.6449  -7.5440  -6.3080  -0.7790   0.3914   1.3221   3.5669   3.7675
     4.9348   6.1638   6.7373   9.0971  12.7103  15.1567  16.5944  17.5354

     occupation numbers 
     1.0000   1.0000   1.0000   1.0000   1.0000   1.0000   1.0000   1.0000
     1.0000   1.0000   1.0000   0.9894   0.0000   0.0000   0.0000   0.0000

          k = 0.0625 0.3165 0.0808 (  2492 PWs)   bands (ev):

    -9.6126  -7.7085  -6.1378  -0.7399   0.2237   1.4618   3.2391   3.7626
     5.3800   6.0971   6.6286   9.1707  12.6747  15.1299  16.5065  17.5447

     occupation numbers 
     1.0000   1.0000   1.0000   1.0000   1.0000   1.0000   1.0000   1.0000
     1.0000   1.0000   1.0000   0.9728   0.0000   0.0000   0.0000   0.0000

          k = 0.0625 0.3165 0.1347 (  2497 PWs)   bands (ev):

    -9.5623  -7.9035  -5.9373  -0.7142   0.1328   1.4312   3.0782   3.7814
     5.7224   6.0266   6.5316   9.2736  12.6098  15.0794  16.4095  17.6062

     occupation numbers 
     1.0000   1.0000   1.0000   1.0000   1.0000   1.0000   1.0000   1.0000
     1.0000   1.0000   1.0000   0.9176   0.0000   0.0000   0.0000   0.0000

          k = 0.0625 0.3165 0.1886 (  2497 PWs)   bands (ev):

    -9.5225  -8.0284  -5.8115  -0.7286   0.1735   1.2574   3.1163   3.7963
     5.7462   6.0206   6.5708   9.3455  12.5536  15.0355  16.3549  17.6747

     occupation numbers 
     1.0000   1.0000   1.0000   1.0000   1.0000   1.0000   1.0000   1.0000
     1.0000   1.0000   1.0000   0.8450   0.0000   0.0000   0.0000   0.0000

          k = 0.0625 0.4431 0.0269 (  2503 PWs)   bands (ev):

    -8.9028  -6.7804  -6.2778  -1.9275  -0.7282   1.0546   3.4493   4.0884
     4.6925   5.9518   6.4758   9.1489  11.7739  15.4274  16.8694  17.8251

     occupation numbers 
     1.0000   1.0000   1.0000   1.0000   1.0000   1.0000   1.0000   1.0000
     1.0000   1.0000   1.0000   0.9792   0.0000   0.0000   0.0000   0.0000

          k = 0.0625 0.4431 0.0808 (  2503 PWs)   bands (ev):

    -8.8863  -6.8668  -6.2211  -1.9664  -0.5709   1.1930   2.8131   4.0852
     5.2478   5.7546   6.4580   9.1602  11.9236  15.4014  16.8894  17.8396

     occupation numbers 
     1.0000   1.0000   1.0000   1.0000   1.0000   1.0000   1.0000   1.0000
     1.0000   1.0000   1.0000   0.9761   0.0000   0.0000   0.0000   0.0000

          k = 0.0625 0.4431 0.1347 (  2493 PWs)   bands (ev):

    -8.8618  -6.9701  -6.1600  -2.0286  -0.2516   1.3052   2.2093   4.0917
     5.4682   5.7406   6.4305   9.1764  12.1270  15.3664  16.9127  17.8725

     occupation numbers 
     1.0000   1.0000   1.0000   1.0000   1.0000   1.0000   1.0000   1.0000
     1.0000   1.0000   1.0000   0.9709   0.0000   0.0000   0.0000   0.0000

          k = 0.0625 0.4431 0.1886 (  2496 PWs)   bands (ev):

    -8.8438  -7.0360  -6.1244  -2.0749   0.1406   1.0865   2.0026   4.0971
     5.2576   6.0210   6.4064   9.1879  12.2658  15.3429  16.9250  17.9611

     occupation numbers 
     1.0000   1.0000   1.0000   1.0000   1.0000   1.0000   1.0000   1.0000
     1.0000   1.0000   1.0000   0.9667   0.0000   0.0000   0.0000   0.0000

          k = 0.1875 0.1899 0.0269 (  2489 PWs)   bands (ev):

    -9.9962  -7.8762  -6.4305   0.7291   1.2119   1.8292   2.1461   4.2407
     4.6768   5.6235   7.4459   8.1652  13.6406  14.5289  17.2561  17.5326

     occupation numbers 
     1.0000   1.0000   1.0000   1.0000   1.0000   1.0000   1.0000   1.0000
     1.0000   1.0000   1.0000   1.0000   0.0000   0.0000   0.0000   0.0000

          k = 0.1875 0.1899 0.0808 (  2487 PWs)   bands (ev):

    -9.9591  -8.0596  -6.2215   0.3326   1.3826   1.8204   2.4421   3.9159
     4.7337   5.7024   7.5954   8.2071  13.5189  14.3177  17.2749  17.8006

     occupation numbers 
     1.0000   1.0000   1.0000   1.0000   1.0000   1.0000   1.0000   1.0000
     1.0000   1.0000   1.0000   1.0000   0.0000   0.0000   0.0000   0.0000

          k = 0.1875 0.1899 0.1347 (  2486 PWs)   bands (ev):

    -9.9003  -8.2782  -5.9677  -0.0434   1.4845   1.8739   2.7626   3.5638
     4.7454   5.7508   7.7982   8.2929  13.3154  14.0805  17.2705  17.9586

     occupation numbers 
     1.0000   1.0000   1.0000   1.0000   1.0000   1.0000   1.0000   1.0000
     1.0000   1.0000   1.0000   1.0000   0.0000   0.0000   0.0000   0.0000

          k = 0.1875 0.1899 0.1886 (  2494 PWs)   bands (ev):

    -9.8528  -8.4193  -5.8033  -0.2671   1.5334   1.9344   3.0021   3.2807
     4.7773   5.7280   7.9531   8.3602  13.1539  13.9408  17.2582  18.0140

     occupation numbers 
     1.0000   1.0000   1.0000   1.0000   1.0000   1.0000   1.0000   1.0000
     1.0000   1.0000   1.0000   1.0000   0.0000   0.0000   0.0000   0.0000

          k = 0.1875 0.3165 0.0269 (  2477 PWs)   bands (ev):

    -9.2740  -7.1992  -6.0594  -0.4203   0.6194   1.4412   2.3099   3.4726
     4.5339   5.2338   6.4691   7.9518  12.2980  14.1199  16.6822  18.2390

     occupation numbers 
     1.0000   1.0000   1.0000   1.0000   1.0000   1.0000   1.0000   1.0000
     1.0000   1.0000   1.0000   1.0000   0.0000   0.0000   0.0000   0.0000

          k = 0.1875 0.3165 0.0808 (  2479 PWs)   bands (ev):

    -9.2443  -7.3531  -5.9049  -0.3819   0.4906   1.5476   2.3391   3.1589
     4.7501   5.2431   6.4874   7.9835  12.3230  13.9688  16.9262  18.2680

     occupation numbers 
     1.0000   1.0000   1.0000   1.0000   1.0000   1.0000   1.0000   1.0000
     1.0000   1.0000   1.0000   1.0000   0.0000   0.0000   0.0000   0.0000

          k = 0.1875 0.3165 0.1347 (  2491 PWs)   bands (ev):

    -9.1984  -7.5354  -5.7248  -0.3505   0.4193   1.5556   2.3502   2.9598
     4.7703   5.3821   6.5040   8.0423  12.3420  13.7854  17.3430  18.3203

     occupation numbers 
     1.0000   1.0000   1.0000   1.0000   1.0000   1.0000   1.0000   1.0000
     1.0000   1.0000   1.0000   1.0000   0.0000   0.0000   0.0000   0.0000

          k = 0.1875 0.3165 0.1886 (  2497 PWs)   bands (ev):

    -9.1625  -7.6516  -5.6128  -0.3539   0.4511   1.4509   2.3415   2.9377
     4.7303   5.4693   6.5299   8.0897  12.3420  13.6749  17.7929  18.3819

     occupation numbers 
     1.0000   1.0000   1.0000   1.0000   1.0000   1.0000   1.0000   1.0000
     1.0000   1.0000   1.0000   1.0000   0.0000   0.0000   0.0000   0.0000

          k = 0.1875 0.4431 0.0269 (  2496 PWs)   bands (ev):

    -8.5600  -6.4689  -6.0082  -1.5234  -0.3982   1.3959   2.6162   3.3008
     4.3847   5.4441   5.7480   7.8608  11.2712  13.7919  16.4264  19.0159

     occupation numbers 
     1.0000   1.0000   1.0000   1.0000   1.0000   1.0000   1.0000   1.0000
     1.0000   1.0000   1.0000   1.0000   0.0000   0.0000   0.0000   0.0000

          k = 0.1875 0.4431 0.0808 (  2497 PWs)   bands (ev):

    -8.5451  -6.5476  -5.9565  -1.5555  -0.2537   1.5053   2.5394   2.8942
     4.7392   5.4036   5.6603   7.8328  11.4392  13.6882  16.6911  18.9966

     occupation numbers 
     1.0000   1.0000   1.0000   1.0000   1.0000   1.0000   1.0000   1.0000
     1.0000   1.0000   1.0000   1.0000   0.0000   0.0000   0.0000   0.0000

          k = 0.1875 0.4431 0.1347 (  2493 PWs)   bands (ev):

    -8.5232  -6.6417  -5.9010  -1.6071   0.0347   1.5550   2.2363   2.7508
     4.9790   5.3370   5.5964   7.8050  11.6773  13.5389  17.1859  18.9472

     occupation numbers 
     1.0000   1.0000   1.0000   1.0000   1.0000   1.0000   1.0000   1.0000
     1.0000   1.0000   1.0000   1.0000   0.0000   0.0000   0.0000   0.0000

          k = 0.1875 0.4431 0.1886 (  2489 PWs)   bands (ev):

    -8.5071  -6.7015  -5.8687  -1.6459   0.3807   1.2943   2.1522   2.7393
     5.0082   5.2805   5.6366   7.7916  11.8508  13.4276  17.8241  18.7059

     occupation numbers 
     1.0000   1.0000   1.0000   1.0000   1.0000   1.0000   1.0000   1.0000
     1.0000   1.0000   1.0000   1.0000   0.0000   0.0000   0.0000   0.0000

          k = 0.3125 0.3165 0.0269 (  2479 PWs)   bands (ev):

    -8.6271  -6.6032  -5.7199  -0.0576   0.5870   0.8683   1.6625   2.8976
     3.8644   4.9367   5.7384   7.0857  10.8260  13.8125  15.9039  18.7941

     occupation numbers 
     1.0000   1.0000   1.0000   1.0000   1.0000   1.0000   1.0000   1.0000
     1.0000   1.0000   1.0000   1.0000   0.0000   0.0000   0.0000   0.0000

          k = 0.3125 0.3165 0.0808 (  2485 PWs)   bands (ev):

    -8.6043  -6.7283  -5.6054  -0.0157   0.6297   0.7794   1.7256   2.6912
     4.0600   4.7710   5.9026   6.9753  10.9867  13.5830  16.1869  18.5584

     occupation numbers 
     1.0000   1.0000   1.0000   1.0000   1.0000   1.0000   1.0000   1.0000
     1.0000   1.0000   1.0000   1.0000   0.0000   0.0000   0.0000   0.0000

          k = 0.3125 0.3165 0.1347 (  2480 PWs)   bands (ev):

    -8.5696  -6.8757  -5.4752   0.0625   0.5246   0.8524   1.7609   2.4677
     4.1783   4.7218   6.0361   6.8348  11.2253  13.2542  16.7093  18.3523

     occupation numbers 
     1.0000   1.0000   1.0000   1.0000   1.0000   1.0000   1.0000   1.0000
     1.0000   1.0000   1.0000   1.0000   0.0000   0.0000   0.0000   0.0000

          k = 0.3125 0.3165 0.1886 (  2474 PWs)   bands (ev):

    -8.5433  -6.9688  -5.3961   0.1557   0.3878   0.9621   1.7615   2.3145
     4.1840   4.7845   6.0896   6.7492  11.4144  13.0048  17.3658  18.1075

     occupation numbers 
     1.0000   1.0000   1.0000   1.0000   1.0000   1.0000   1.0000   1.0000
     1.0000   1.0000   1.0000   1.0000   0.0000   0.0000   0.0000   0.0000

          k = 0.3125 0.4431 0.0269 (  2494 PWs)   bands (ev):

    -7.9705  -5.9536  -5.5978  -0.8265   0.1681   1.0092   1.8603   2.4295
     3.6708   4.8957   5.0704   6.7164   9.6048  13.8030  15.8162  17.7855

     occupation numbers 
     1.0000   1.0000   1.0000   1.0000   1.0000   1.0000   1.0000   1.0000
     1.0000   1.0000   1.0000   1.0000   0.3699   0.0000   0.0000   0.0000

          k = 0.3125 0.4431 0.0808 (  2482 PWs)   bands (ev):

    -7.9596  -6.0126  -5.5580  -0.8451   0.2266   1.0370   1.8734   2.3680
     3.7679   4.7763   5.1068   6.5150   9.9110  13.5171  16.0999  17.6827

     occupation numbers 
     1.0000   1.0000   1.0000   1.0000   1.0000   1.0000   1.0000   1.0000
     1.0000   1.0000   1.0000   1.0000   0.0272   0.0000   0.0000   0.0000

          k = 0.3125 0.4431 0.1347 (  2485 PWs)   bands (ev):

    -7.9438  -6.0830  -5.5151  -0.8741   0.3259   1.0720   1.8384   2.3528
     3.8623   4.6815   5.1019   6.2656  10.3561  13.0931  16.5607  17.5110

     occupation numbers 
     1.0000   1.0000   1.0000   1.0000   1.0000   1.0000   1.0000   1.0000
     1.0000   1.0000   1.0000   1.0000   0.0000   0.0000   0.0000   0.0000

          k = 0.3125 0.4431 0.1886 (  2478 PWs)   bands (ev):

    -7.9323  -6.1277  -5.4901  -0.8958   0.4116   1.0864   1.7903   2.3753
     3.8985   4.6557   5.0747   6.1074  10.7173  12.7451  16.9463  17.3951

     occupation numbers 
     1.0000   1.0000   1.0000   1.0000   1.0000   1.0000   1.0000   1.0000
     1.0000   1.0000   1.0000   1.0000   0.0000   0.0000   0.0000   0.0000

          k = 0.4375 0.4431 0.0269 (  2475 PWs)   bands (ev):

    -7.4236  -5.4837  -5.3388  -0.2097   0.0225   0.7318   1.1465   2.7250
     3.0156   3.9182   5.0203   6.1946   8.3428  14.1995  15.9842  16.6978

     occupation numbers 
     1.0000   1.0000   1.0000   1.0000   1.0000   1.0000   1.0000   1.0000
     1.0000   1.0000   1.0000   1.0000   1.0000   0.0000   0.0000   0.0000

          k = 0.4375 0.4431 0.0808 (  2477 PWs)   bands (ev):

    -7.4190  -5.5064  -5.3218  -0.2235  -0.0105   0.4718   1.5620   2.7467
     3.0987   3.9791   4.7986   5.8139   8.8432  13.7883  16.0701  16.4407

     occupation numbers 
     1.0000   1.0000   1.0000   1.0000   1.0000   1.0000   1.0000   1.0000
     1.0000   1.0000   1.0000   1.0000   0.9999   0.0000   0.0000   0.0000

          k = 0.4375 0.4431 0.1347 (  2472 PWs)   bands (ev):

    -7.4125  -5.5332  -5.3031  -0.2344  -0.0686   0.2970   2.0114   2.7538
     3.2603   4.0806   4.4457   5.3470   9.5118  13.1729  16.0564  16.1643

     occupation numbers 
     1.0000   1.0000   1.0000   1.0000   1.0000   1.0000   1.0000   1.0000
     1.0000   1.0000   1.0000   1.0000   0.5599   0.0000   0.0000   0.0000

          k = 0.4375 0.4431 0.1886 (  2472 PWs)   bands (ev):

    -7.4078  -5.5500  -5.2920  -0.2285  -0.1264   0.2153   2.3850   2.6921
     3.5185   3.8877   4.3793   4.9708  10.0520  12.6492  15.9543  16.0274

     occupation numbers 
     1.0000   1.0000   1.0000   1.0000   1.0000   1.0000   1.0000   1.0000
     1.0000   1.0000   1.0000   1.0000   0.0040   0.0000   0.0000   0.0000

          k = 0.1875 0.0633-0.0269 (  2487 PWs)   bands (ev):

   -10.4036  -8.2597  -6.7063   0.5822   1.2946   1.7902   3.5022   4.2672
     5.7444   6.0318   7.7870   9.0927  13.7747  14.9999  16.4074  16.8434

     occupation numbers 
     1.0000   1.0000   1.0000   1.0000   1.0000   1.0000   1.0000   1.0000
     1.0000   1.0000   1.0000   0.9901   0.0000   0.0000   0.0000   0.0000

          k = 0.1875 0.0633-0.0808 (  2486 PWs)   bands (ev):

   -10.3637  -8.4532  -6.4767   0.1291   1.2710   2.3014   3.5260   4.0918
     5.7202   6.0644   7.8398   9.2132  13.6074  14.9297  16.4057  16.6315

     occupation numbers 
     1.0000   1.0000   1.0000   1.0000   1.0000   1.0000   1.0000   1.0000
     1.0000   1.0000   1.0000   0.9557   0.0000   0.0000   0.0000   0.0000

          k = 0.1875 0.0633-0.1347 (  2496 PWs)   bands (ev):

   -10.3002  -8.6846  -6.1939  -0.3295   1.3214   2.7154   3.5541   3.9745
     5.6180   6.0440   7.9763   9.3846  13.3548  14.8323  16.2745  16.5080

     occupation numbers 
     1.0000   1.0000   1.0000   1.0000   1.0000   1.0000   1.0000   1.0000
     1.0000   1.0000   1.0000   0.7916   0.0000   0.0000   0.0000   0.0000

          k = 0.1875 0.0633-0.1886 (  2500 PWs)   bands (ev):

   -10.2483  -8.8347  -6.0078  -0.6036   1.3690   2.8732   3.5682   4.0237
     5.5324   5.9556   8.1143   9.5065  13.1646  14.7608  16.1236  16.5015

     occupation numbers 
     1.0000   1.0000   1.0000   1.0000   1.0000   1.0000   1.0000   1.0000
     1.0000   1.0000   1.0000   0.5708   0.0000   0.0000   0.0000   0.0000

          k = 0.3125 0.0633-0.0269 (  2478 PWs)   bands (ev):

    -9.6945  -7.5919  -6.3695  -0.8454   0.3078   1.3129   3.5737   3.8953
     4.9127   6.2498   6.8008   9.1908  12.7715  15.2751  16.8378  17.7316

     occupation numbers 
     1.0000   1.0000   1.0000   1.0000   1.0000   1.0000   1.0000   1.0000
     1.0000   1.0000   1.0000   0.9656   0.0000   0.0000   0.0000   0.0000

          k = 0.3125 0.0633-0.0808 (  2486 PWs)   bands (ev):

    -9.6625  -7.7555  -6.2010  -0.8099   0.1590   1.4449   3.2200   3.8971
     5.3746   6.1860   6.6835   9.2592  12.7485  15.2425  16.7624  17.7364

     occupation numbers 
     1.0000   1.0000   1.0000   1.0000   1.0000   1.0000   1.0000   1.0000
     1.0000   1.0000   1.0000   0.9283   0.0000   0.0000   0.0000   0.0000

          k = 0.3125 0.0633-0.1347 (  2494 PWs)   bands (ev):

    -9.6127  -7.9494  -6.0030  -0.7929   0.0934   1.4033   3.0512   3.9154
     5.7319   6.1134   6.5761   9.3548  12.6986  15.1876  16.6799  17.8081

     occupation numbers 
     1.0000   1.0000   1.0000   1.0000   1.0000   1.0000   1.0000   1.0000
     1.0000   1.0000   1.0000   0.8333   0.0000   0.0000   0.0000   0.0000

          k = 0.3125 0.0633-0.1886 (  2499 PWs)   bands (ev):

    -9.5734  -8.0735  -5.8789  -0.8134   0.1570   1.2128   3.0913   3.9298
     5.7704   6.0992   6.6076   9.4214  12.6510  15.1430  16.6338  17.9008

     occupation numbers 
     1.0000   1.0000   1.0000   1.0000   1.0000   1.0000   1.0000   1.0000
     1.0000   1.0000   1.0000   0.7327   0.0000   0.0000   0.0000   0.0000

          k = 0.4375 0.0633-0.0269 (  2495 PWs)   bands (ev):

    -8.9939  -6.8662  -6.3675  -1.9365  -0.7724   1.0480   3.4399   4.1930
     4.6787   6.0581   6.5324   9.2314  11.8460  15.4956  17.2036  17.9208

     occupation numbers 
     1.0000   1.0000   1.0000   1.0000   1.0000   1.0000   1.0000   1.0000
     1.0000   1.0000   1.0000   0.9461   0.0000   0.0000   0.0000   0.0000

          k = 0.4375 0.0633-0.0808 (  2493 PWs)   bands (ev):

    -8.9775  -6.9519  -6.3112  -1.9781  -0.6114   1.1909   2.7874   4.1910
     5.2487   5.8490   6.5157   9.2431  12.0129  15.4699  17.2241  17.9257

     occupation numbers 
     1.0000   1.0000   1.0000   1.0000   1.0000   1.0000   1.0000   1.0000
     1.0000   1.0000   1.0000   0.9391   0.0000   0.0000   0.0000   0.0000

          k = 0.4375 0.0633-0.1347 (  2498 PWs)   bands (ev):

    -8.9533  -7.0546  -6.2506  -2.0438  -0.2847   1.3052   2.1744   4.1975
     5.5477   5.7512   6.4897   9.2593  12.2402  15.4344  17.2454  17.9519

     occupation numbers 
     1.0000   1.0000   1.0000   1.0000   1.0000   1.0000   1.0000   1.0000
     1.0000   1.0000   1.0000   0.9283   0.0000   0.0000   0.0000   0.0000

          k = 0.4375 0.0633-0.1886 (  2501 PWs)   bands (ev):

    -8.9354  -7.1200  -6.2152  -2.0922   0.1201   1.0628   1.9813   4.2028
     5.3263   6.0369   6.4675   9.2705  12.3959  15.4098  17.2542  18.0413

     occupation numbers 
     1.0000   1.0000   1.0000   1.0000   1.0000   1.0000   1.0000   1.0000
     1.0000   1.0000   1.0000   0.9200   0.0000   0.0000   0.0000   0.0000

          k = 0.3125 0.1899-0.0269 (  2484 PWs)   bands (ev):

    -9.3069  -7.2304  -6.0993  -0.4657   0.5574   1.4660   2.3727   3.5045
     4.5284   5.2383   6.5498   7.9547  12.3949  14.0581  16.7196  18.5589

     occupation numbers 
     1.0000   1.0000   1.0000   1.0000   1.0000   1.0000   1.0000   1.0000
     1.0000   1.0000   1.0000   1.0000   0.0000   0.0000   0.0000   0.0000

          k = 0.3125 0.1899-0.0808 (  2481 PWs)   bands (ev):

    -9.2774  -7.3838  -5.9459  -0.4306   0.4443   1.5672   2.3970   3.1768
     4.7580   5.2562   6.5560   7.9868  12.4213  13.9174  16.9633  18.5883

     occupation numbers 
     1.0000   1.0000   1.0000   1.0000   1.0000   1.0000   1.0000   1.0000
     1.0000   1.0000   1.0000   1.0000   0.0000   0.0000   0.0000   0.0000

          k = 0.3125 0.1899-0.1347 (  2483 PWs)   bands (ev):

    -9.2319  -7.5653  -5.7672  -0.4076   0.3962   1.5605   2.4044   2.9794
     4.7845   5.4003   6.5604   8.0458  12.4416  13.7470  17.3846  18.6396

     occupation numbers 
     1.0000   1.0000   1.0000   1.0000   1.0000   1.0000   1.0000   1.0000
     1.0000   1.0000   1.0000   1.0000   0.0000   0.0000   0.0000   0.0000

          k = 0.3125 0.1899-0.1886 (  2493 PWs)   bands (ev):

    -9.1962  -7.6809  -5.6562  -0.4180   0.4505   1.4332   2.3977   2.9649
     4.7460   5.4875   6.5808   8.0929  12.4418  13.6452  17.8552  18.6483

     occupation numbers 
     1.0000   1.0000   1.0000   1.0000   1.0000   1.0000   1.0000   1.0000
     1.0000   1.0000   1.0000   1.0000   0.0000   0.0000   0.0000   0.0000

          k = 0.4375 0.1899-0.0269 (  2491 PWs)   bands (ev):

    -8.6337  -6.5359  -6.0781  -1.5136  -0.4263   1.4095   2.6525   3.3245
     4.3760   5.4362   5.8729   7.8595  11.4188  13.7207  16.4770  19.3295

     occupation numbers 
     1.0000   1.0000   1.0000   1.0000   1.0000   1.0000   1.0000   1.0000
     1.0000   1.0000   1.0000   1.0000   0.0000   0.0000   0.0000   0.0000

          k = 0.4375 0.1899-0.0808 (  2485 PWs)   bands (ev):

    -8.6188  -6.6144  -6.0266  -1.5481  -0.2771   1.5230   2.5557   2.9157
     4.7447   5.4182   5.7598   7.8373  11.5862  13.6290  16.7398  19.2823

     occupation numbers 
     1.0000   1.0000   1.0000   1.0000   1.0000   1.0000   1.0000   1.0000
     1.0000   1.0000   1.0000   1.0000   0.0000   0.0000   0.0000   0.0000

          k = 0.4375 0.1899-0.1347 (  2485 PWs)   bands (ev):

    -8.5970  -6.7083  -5.9712  -1.6031   0.0216   1.5688   2.2253   2.7897
     4.9871   5.3993   5.6465   7.8167  11.8230  13.4968  17.2302  19.1922

     occupation numbers 
     1.0000   1.0000   1.0000   1.0000   1.0000   1.0000   1.0000   1.0000
     1.0000   1.0000   1.0000   1.0000   0.0000   0.0000   0.0000   0.0000

          k = 0.4375 0.1899-0.1886 (  2479 PWs)   bands (ev):

    -8.5810  -6.7679  -5.9390  -1.6440   0.3873   1.2726   2.1559   2.7797
     5.0289   5.3424   5.6728   7.8077  11.9950  13.3977  17.8528  18.8121

     occupation numbers 
     1.0000   1.0000   1.0000   1.0000   1.0000   1.0000   1.0000   1.0000
     1.0000   1.0000   1.0000   1.0000   0.0000   0.0000   0.0000   0.0000

          k = 0.4375 0.3165-0.0269 (  2482 PWs)   bands (ev):

    -8.0100  -5.9859  -5.6318  -0.7810   0.1729   0.9739   1.8934   2.4391
     3.6323   4.9508   5.0843   6.6949   9.6775  13.7587  15.8109  17.8663

     occupation numbers 
     1.0000   1.0000   1.0000   1.0000   1.0000   1.0000   1.0000   1.0000
     1.0000   1.0000   1.0000   1.0000   0.2388   0.0000   0.0000   0.0000

          k = 0.4375 0.3165-0.0808 (  2478 PWs)   bands (ev):

    -7.9991  -6.0455  -5.5917  -0.8011   0.2372   1.0042   1.8935   2.3798
     3.7244   4.8139   5.1534   6.4939   9.9735  13.4842  16.0947  17.7655

     occupation numbers 
     1.0000   1.0000   1.0000   1.0000   1.0000   1.0000   1.0000   1.0000
     1.0000   1.0000   1.0000   1.0000   0.0123   0.0000   0.0000   0.0000

          k = 0.4375 0.3165-0.1347 (  2470 PWs)   bands (ev):

    -7.9832  -6.1164  -5.5485  -0.8322   0.3461   1.0490   1.8223   2.3796
     3.8090   4.7200   5.1723   6.2403  10.4051  13.0768  16.5567  17.5959

     occupation numbers 
     1.0000   1.0000   1.0000   1.0000   1.0000   1.0000   1.0000   1.0000
     1.0000   1.0000   1.0000   1.0000   0.0000   0.0000   0.0000   0.0000

          k = 0.4375 0.3165-0.1886 (  2466 PWs)   bands (ev):

    -7.9716  -6.1614  -5.5235  -0.8556   0.4397   1.0786   1.7377   2.4142
     3.8391   4.6959   5.1617   6.0763  10.7544  12.7429  16.9422  17.4880

     occupation numbers 
     1.0000   1.0000   1.0000   1.0000   1.0000   1.0000   1.0000   1.0000
     1.0000   1.0000   1.0000   1.0000   0.0000   0.0000   0.0000   0.0000

     the Fermi energy is     9.5409 ev

!    total energy              =     -93.91623187 Ry
     estimated scf accuracy    <          4.8E-12 Ry
     smearing contrib. (-TS)   =      -0.00252402 Ry
     internal energy E=F+TS    =     -93.91370785 Ry

     The total energy is F=E-TS. E is the sum of the following terms:
     one-electron contribution =       2.08690020 Ry
     hartree contribution      =      14.45740224 Ry
     xc contribution           =     -25.05964411 Ry
     ewald contribution        =     -70.97796355 Ry
     one-center paw contrib.   =     -14.42040264 Ry
      -> PAW hartree energy AE =       3.23322164 Ry
      -> PAW hartree energy PS =      -3.22500302 Ry
      -> PAW xc energy AE      =      -7.17015169 Ry
      -> PAW xc energy PS      =       2.35170122 Ry
      -> total E_H with PAW    =      14.46562087 Ry
      -> total E_XC with PAW   =     -29.87809458 Ry

     convergence has been achieved in  18 iterations

     Forces acting on atoms (cartesian axes, Ry/au):

     atom    1 type  2   force =     0.00000000    0.00000000    0.00040662
     atom    2 type  1   force =     0.00000000    0.00000000    0.00028880
     atom    3 type  2   force =     0.00000000    0.00000000    0.00017256
     atom    4 type  2   force =     0.00000000    0.00000000   -0.00077440
     atom    5 type  1   force =     0.00000000    0.00000000    0.00067379
     atom    6 type  1   force =     0.00000000    0.00000000   -0.00076736
     The non-local contrib.  to forces
     atom    1 type  2   force =     0.00000000    0.00000000    0.00612914
     atom    2 type  1   force =     0.00000000    0.00000000   -0.41407493
     atom    3 type  2   force =     0.00000000    0.00000000   -0.11783043
     atom    4 type  2   force =     0.00000000    0.00000000    0.13579612
     atom    5 type  1   force =     0.00000000    0.00000000    0.02166067
     atom    6 type  1   force =     0.00000000    0.00000000    0.42738411
     The ionic contribution  to forces
     atom    1 type  2   force =    -0.00000000   -0.00000000   -0.08896101
     atom    2 type  1   force =     0.00000000   -0.00000000   -1.02376098
     atom    3 type  2   force =     0.00000000   -0.00000000   -0.01586637
     atom    4 type  2   force =    -0.00000000    0.00000000   -0.05178636
     atom    5 type  1   force =    -0.00000000   -0.00000000    0.09393299
     atom    6 type  1   force =     0.00000000   -0.00000000    1.08644173
     The local contribution  to forces
     atom    1 type  2   force =     0.00000000    0.00000000    0.08309470
     atom    2 type  1   force =    -0.00000000    0.00000000    1.41061356
     atom    3 type  2   force =     0.00000000    0.00000000    0.13631524
     atom    4 type  2   force =     0.00000000    0.00000000   -0.08725473
     atom    5 type  1   force =     0.00000000   -0.00000000   -0.11327329
     atom    6 type  1   force =    -0.00000000    0.00000000   -1.48597807
     The core correction contribution to forces
     atom    1 type  2   force =     0.00000000    0.00000000    0.00014560
     atom    2 type  1   force =    -0.00000000    0.00000000    0.02751187
     atom    3 type  2   force =    -0.00000000   -0.00000000   -0.00244916
     atom    4 type  2   force =     0.00000000    0.00000000    0.00246924
     atom    5 type  1   force =     0.00000000    0.00000000   -0.00164920
     atom    6 type  1   force =    -0.00000000    0.00000000   -0.02861443
     The Hubbard contrib.    to forces
     atom    1 type  2   force =     0.00000000    0.00000000    0.00000000
     atom    2 type  1   force =     0.00000000    0.00000000    0.00000000
     atom    3 type  2   force =     0.00000000    0.00000000    0.00000000
     atom    4 type  2   force =     0.00000000    0.00000000    0.00000000
     atom    5 type  1   force =     0.00000000    0.00000000    0.00000000
     atom    6 type  1   force =     0.00000000    0.00000000    0.00000000
     The SCF correction term to forces
     atom    1 type  2   force =     0.00000000    0.00000000   -0.00000238
     atom    2 type  1   force =     0.00000000   -0.00000000   -0.00000129
     atom    3 type  2   force =    -0.00000000    0.00000000    0.00000270
     atom    4 type  2   force =     0.00000000   -0.00000000    0.00000075
     atom    5 type  1   force =    -0.00000000   -0.00000000    0.00000204
     atom    6 type  1   force =    -0.00000000   -0.00000000   -0.00000127

     Total force =     0.001386     Total SCF correction =     0.000005


     Computing stress (Cartesian axis) and pressure

          total   stress  (Ry/bohr**3)                   (kbar)     P=      -49.48
  -0.00046266   0.00000000   0.00000000          -68.06        0.00        0.00
   0.00000000  -0.00000249   0.00000000            0.00       -0.37        0.00
   0.00000000   0.00000000  -0.00054391            0.00        0.00      -80.01

     kinetic stress (kbar)  16173.92      0.00      0.00
                                0.00  16203.03      0.00
                                0.00      0.00  15391.89

     local   stress (kbar)  -5044.42     -0.00      0.00
                               -0.00  -5686.03     -0.00
                                0.00     -0.00 -13673.80

     nonloc. stress (kbar)   5804.07      0.00      0.00
                                0.00   5808.29      0.00
                                0.00      0.00   6042.76

     hartree stress (kbar)   1946.95     -0.00     -0.00
                               -0.00   2150.06     -0.00
                               -0.00     -0.00   3468.29

     exc-cor stress (kbar)  -2175.33      0.00      0.00
                                0.00  -2175.33      0.00
                                0.00      0.00  -2175.33

     corecor stress (kbar)  -1679.07      0.00     -0.00
                                0.00  -1679.98     -0.00
                               -0.00     -0.00  -1706.95

     ewald   stress (kbar) -15094.17     -0.00      0.00
                               -0.00 -14620.41      0.00
                                0.00      0.00  -7426.88

     hubbard stress (kbar)      0.00      0.00      0.00
                                0.00      0.00      0.00
                                0.00      0.00      0.00

     DFT-D   stress (kbar)      0.00      0.00      0.00
                                0.00      0.00      0.00
                                0.00      0.00      0.00

     XDM     stress (kbar)      0.00      0.00      0.00
                                0.00      0.00      0.00
                                0.00      0.00      0.00

     dft-nl  stress (kbar)      0.00      0.00      0.00
                                0.00      0.00      0.00
                                0.00      0.00      0.00

     TS-vdW  stress (kbar)      0.00      0.00      0.00
                                0.00      0.00      0.00
                                0.00      0.00      0.00

     MDB     stress (kbar)      0.00      0.00      0.00
                                0.00      0.00      0.00
                                0.00      0.00      0.00

     3D-RISM stress (kbar)      0.00      0.00      0.00
                                0.00      0.00      0.00
                                0.00      0.00      0.00


     Writing all to output data dir /home/amin/Desktop/QE/Sample-1.save/ :
     XML data file, charge density, pseudopotentials, collected wavefunctions

     init_run     :      2.84s CPU      3.26s WALL (       2 calls)
     electrons    :    300.57s CPU    348.37s WALL (       5 calls)
     update_pot   :      0.04s CPU      0.06s WALL (       3 calls)
     forces       :      4.00s CPU      4.80s WALL (       5 calls)
     stress       :     10.94s CPU     12.24s WALL (       5 calls)

     Called by init_run:
     wfcinit      :      2.39s CPU      2.75s WALL (       2 calls)
     wfcinit:atom :      0.02s CPU      0.02s WALL (     128 calls)
     wfcinit:wfcr :      2.23s CPU      2.54s WALL (     128 calls)
     potinit      :      0.04s CPU      0.05s WALL (       2 calls)
     hinit0       :      0.32s CPU      0.33s WALL (       2 calls)

     Called by electrons:
     c_bands      :    273.80s CPU    316.11s WALL (      70 calls)
     sum_band     :     24.60s CPU     29.51s WALL (      70 calls)
     v_of_rho     :      0.14s CPU      0.19s WALL (      74 calls)
     v_h          :      0.04s CPU      0.05s WALL (      74 calls)
     v_xc         :      0.11s CPU      0.15s WALL (      84 calls)
     newd         :      0.96s CPU      1.07s WALL (      74 calls)
     PAW_pot      :      0.79s CPU      0.97s WALL (      77 calls)
     mix_rho      :      0.29s CPU      0.45s WALL (      70 calls)

     Called by c_bands:
     init_us_2    :      2.54s CPU      2.96s WALL (    9920 calls)
     cegterg      :    267.51s CPU    308.39s WALL (    4480 calls)

     Called by sum_band:
     sum_band:wei :      0.04s CPU      0.04s WALL (      70 calls)
     sum_band:loo :     23.81s CPU     28.65s WALL (      70 calls)
     sum_band:buf :      0.22s CPU      0.27s WALL (    4480 calls)
     sum_band:ini :      1.16s CPU      1.31s WALL (    4480 calls)
     sum_band:cal :      9.12s CPU     10.52s WALL (    4672 calls)
     sum_band:bec :      0.11s CPU      0.11s WALL (    4672 calls)
     addusdens    :      0.57s CPU      0.60s WALL (      70 calls)
                                        0.00s GPU  (      70 calls)
     addusd:skk   :      0.01s CPU      0.01s WALL (     140 calls)
                                        0.00s GPU  (     140 calls)

     Called by *egterg:
     cdiaghg      :     12.76s CPU     14.17s WALL (   23573 calls)
     cegterg:over :     34.85s CPU     39.93s WALL (   19349 calls)
     cegterg:upda :     10.11s CPU     10.96s WALL (   19349 calls)
     cegterg:last :     26.88s CPU     29.34s WALL (   13293 calls)
     h_psi        :    139.81s CPU    166.16s WALL (   23957 calls)
     s_psi        :     20.32s CPU     22.29s WALL (   23957 calls)
     g_psi        :      0.61s CPU      0.68s WALL (   19349 calls)

     Called by h_psi:
     h_psi:calbec :     28.26s CPU     32.56s WALL (   23957 calls)
     vloc_psi     :     90.19s CPU    110.39s WALL (   23957 calls)
                                        0.00s GPU  (   23957 calls)
     add_vuspsi   :     20.56s CPU     22.36s WALL (   23957 calls)

     General routines
     calbec       :     49.93s CPU     57.49s WALL (   34069 calls)
     fft          :      0.27s CPU      0.29s WALL (     340 calls)
     ffts         :      0.02s CPU      0.02s WALL (      70 calls)
     fftw         :     95.91s CPU    118.04s WALL (  551060 calls)
     davcio       :      0.83s CPU      1.13s WALL (   15374 calls)

     Parallel routines

     PAW routines
     PAW_pot      :      0.79s CPU      0.97s WALL (      77 calls)
     PAW_symme    :      0.02s CPU      0.03s WALL (     147 calls)

     PWSCF        :   5m19.16s CPU   6m 9.70s WALL


   This run was terminated on:   8:20:34  30Aug2026            

=------------------------------------------------------------------------------=
   JOB DONE.
=------------------------------------------------------------------------------=
